Ge8
1.0
0.000000 5.762862 5.762862
5.762862 0.000000 5.762862
2.881431 2.881431 0.000000
Ge
8
direct
0.250000 0.250000 0.500000 Ge
0.250000 0.750000 0.500000 Ge
0.750000 0.250000 0.500000 Ge
0.750000 0.750000 0.500000 Ge
0.375000 0.375000 0.750000 Ge
0.375000 0.875000 0.750000 Ge
0.875000 0.375000 0.750000 Ge
0.875000 0.875000 0.750000 Ge
