Sb2 Br9
1.0
   3.8959509671781678   -6.7479850189496933    0.0000000000000000
   3.8959509671781678    6.7479850189496933    0.0000000000000000
   0.0000000000000000    0.0000000000000000    9.3206729999999993
Sb Br
2 9
direct
   0.3333333333333333    0.6666666666666666    0.1868540000000000 Sb1.5+
   0.6666666666666667    0.3333333333333334    0.8131460000000000 Sb1.5+
   0.0000000000000000    0.5000000000000000    0.0000000000000000 Br0.33333333-
   0.5000000000000000    0.0000000000000000    0.0000000000000000 Br0.33333333-
   0.5000000000000000    0.5000000000000000    0.0000000000000000 Br0.33333333-
   0.1739873333333333    0.8260126666666667    0.3292240000000000 Br0.33333333-
   0.6520253333333335    0.8260126666666667    0.3292240000000000 Br0.33333333-
   0.1739873333333333    0.3479746666666665    0.3292240000000000 Br0.33333333-
   0.8260126666666667    0.1739873333333333    0.6707760000000000 Br0.33333333-
   0.3479746666666665    0.1739873333333333    0.6707760000000000 Br0.33333333-
   0.8260126666666667    0.6520253333333335    0.6707760000000000 Br0.33333333-

