BNC2                                    
   1.00000000000000     
     2.4892725442018855   -0.0000000000000000   -0.0000000000000000
    -1.2446362721009427    2.1557735948484869   -0.0000000000000000
     0.0000000000000000    0.0000000000000000    7.4855339376697394
   C    B    N 
     2     1     1
Direct
 -0.0000000000000000  0.0000000000000000  0.2500000000000000
  0.6666669999999968  0.3333330000000032  0.2500000000000000
  0.0000000000000000 -0.0000000000000000  0.7500000000000000
  0.3333330000000032  0.6666669999999968  0.7500000000000000
 
  0.00000000E+00  0.00000000E+00  0.00000000E+00
  0.00000000E+00  0.00000000E+00  0.00000000E+00
  0.00000000E+00  0.00000000E+00  0.00000000E+00
  0.00000000E+00  0.00000000E+00  0.00000000E+00
