H8 O4                                   
   1.00000000000000     
     4.3843658013709197   -0.0076127457350507   -0.0000000000000000
    -2.1969939525215612    3.7941987640874575    0.0000000000000000
     0.0000000000000000    0.0000000000000000    7.1562892142361276
   H    O 
     8     4
Direct
  0.3354164656812297  0.6645835343239566  0.2996806781186063
  0.6645835343187702  0.3354164656760434  0.7996806781186062
  0.4601233563275148  0.5398766436728385  0.4826902982750189
  0.5398766436724852  0.4601233563271615  0.9826902982750189
  0.9162025336283370  0.4527158061761967  0.5171116061635420
  0.5472841938246632  0.0837974663626375  0.5171116061635420
  0.0837974663716630  0.5472841938238033  0.0171116061635420
  0.4527158061753368  0.9162025336373626  0.0171116061635420
  0.3338449270659027  0.6661550729385211  0.4403041425916170
  0.6661550729340974  0.3338449270614789  0.9403041425916170
  0.6666381247156202  0.3333618752843735  0.5651016686876836
  0.3333618752843798  0.6666381247156266  0.0651016686876837
 
  0.00000000E+00  0.00000000E+00  0.00000000E+00
  0.00000000E+00  0.00000000E+00  0.00000000E+00
  0.00000000E+00  0.00000000E+00  0.00000000E+00
  0.00000000E+00  0.00000000E+00  0.00000000E+00
  0.00000000E+00  0.00000000E+00  0.00000000E+00
  0.00000000E+00  0.00000000E+00  0.00000000E+00
  0.00000000E+00  0.00000000E+00  0.00000000E+00
  0.00000000E+00  0.00000000E+00  0.00000000E+00
  0.00000000E+00  0.00000000E+00  0.00000000E+00
  0.00000000E+00  0.00000000E+00  0.00000000E+00
  0.00000000E+00  0.00000000E+00  0.00000000E+00
  0.00000000E+00  0.00000000E+00  0.00000000E+00
