Nb12 H2 S2 I18
1.0
10.550660 0.000000 0.000000
-4.318924 9.799686 0.000000
-3.142329 -4.781120 10.364235
Nb H S I
12 2 2 18
direct
0.194178 0.120902 0.176066 Nb
0.805822 0.879098 0.823934 Nb
0.927784 0.801403 0.042437 Nb
0.072216 0.198597 0.957563 Nb
0.877152 0.064818 0.085952 Nb
0.122848 0.935182 0.914048 Nb
0.193251 0.120030 0.473176 Nb
0.806749 0.879970 0.526824 Nb
0.876918 0.064817 0.386187 Nb
0.123082 0.935183 0.613813 Nb
0.926251 0.801321 0.328512 Nb
0.073749 0.198679 0.671488 Nb
0.000000 0.000000 0.500000 H
0.000000 0.000000 0.000000 H
0.998124 0.993302 0.247845 S
0.001876 0.006698 0.752155 S
0.621492 0.754243 0.947179 I
0.378508 0.245757 0.052821 I
0.547118 0.721590 0.576185 I
0.452882 0.278410 0.423815 I
0.138022 0.371901 0.527070 I
0.861978 0.628099 0.472930 I
0.833266 0.543494 0.102232 I
0.166734 0.456506 0.897768 I
0.240544 0.865400 0.119973 I
0.759456 0.134600 0.880027 I
0.714264 0.155830 0.218967 I
0.285736 0.844170 0.781033 I
0.139734 0.372673 0.215755 I
0.860266 0.627327 0.784245 I
0.238336 0.862392 0.429017 I
0.761664 0.137608 0.570983 I
0.618838 0.755098 0.257524 I
0.381162 0.244902 0.742476 I
