K4 V4 As6 H12 O31
1.0
6.691935 0.000000 0.000000
-2.056348 9.058882 0.000000
-2.095369 -4.320878 12.109812
K V As H O
4 4 6 12 31
direct
0.245042 0.217580 0.916248 K
0.755145 0.785712 0.085719 K
0.072847 0.797572 0.662142 K
0.910184 0.213963 0.353364 K
0.834649 0.123399 0.642031 V
0.160867 0.875871 0.357349 V
0.503275 0.444539 0.225182 V
0.496668 0.553040 0.776535 V
0.686786 0.961485 0.856475 As
0.310878 0.038436 0.144838 As
0.329134 0.174580 0.602525 As
0.669711 0.823878 0.397894 As
0.989808 0.508565 0.794094 As
0.009638 0.491468 0.203206 As
0.560973 0.759189 0.587665 H
0.427693 0.230784 0.401591 H
0.486916 0.061901 0.751319 H
0.511792 0.937820 0.248862 H
0.866407 0.438027 0.015582 H
0.134854 0.562081 0.981358 H
0.158588 0.809898 0.988552 H
0.839128 0.188937 0.012546 H
0.568005 0.592525 0.584571 H
0.448872 0.404738 0.418231 H
0.192385 0.556317 0.525289 H
0.997952 0.563359 0.446239 H
0.954548 0.389464 0.054660 O
0.042357 0.608750 0.943170 O
0.380956 0.215530 0.128365 O
0.616175 0.783036 0.870563 O
0.199175 0.925508 0.004237 O
0.798817 0.073316 0.997023 O
0.157193 0.787820 0.450021 O
0.828376 0.207316 0.548026 O
0.789485 0.571777 0.742836 O
0.211457 0.432429 0.256938 O
0.132795 0.101655 0.659837 O
0.864155 0.899540 0.340474 O
0.946277 0.317884 0.786318 O
0.050688 0.682523 0.211606 O
0.619450 0.624994 0.365135 O
0.387314 0.373753 0.636595 O
0.209625 0.592835 0.759365 O
0.794788 0.409789 0.242864 O
0.505888 0.477172 0.876172 O
0.496671 0.521181 0.125715 O
0.725360 0.891344 0.540314 O
0.272065 0.105497 0.460342 O
0.489301 0.668014 0.607659 O
0.498721 0.318878 0.378954 O
0.852823 0.996827 0.775443 O
0.145778 0.002012 0.226066 O
0.461292 0.018025 0.816335 O
0.537746 0.983272 0.185375 O
0.532060 0.113153 0.661327 O
0.463519 0.882140 0.339236 O
0.038442 0.511005 0.498322 O
