Zn4 Se4
1.0
5.468728 0.000000 0.000000
0.000000 5.468728 0.000000
0.000000 0.000000 5.468728
Zn Se
4 4
direct
0.250000 0.250000 0.750000 Zn
0.250000 0.750000 0.250000 Zn
0.750000 0.250000 0.250000 Zn
0.750000 0.750000 0.750000 Zn
0.000000 0.000000 0.500000 Se
0.000000 0.500000 0.000000 Se
0.500000 0.000000 0.000000 Se
0.500000 0.500000 0.500000 Se
