H8 O4                                   
   1.00000000000000     
     4.3846125282315516   -0.0077137283133093    0.0000000000000000
    -2.1972046927815607    3.7943620436039494   -0.0000000000000000
    -0.0000000000000000    0.0000000000000000    7.1562357544722595
   H    O 
     8     4
Direct
  0.3354222049588781  0.6645777950463061  0.2997252224911306
  0.6645777950411218  0.3354222049536937  0.7997252224911304
  0.4601437030323417  0.5398562969680094  0.4826934175348007
  0.5398562969676581  0.4601437030319906  0.9826934175348004
  0.9162164367693020  0.4527146604836401  0.5171051450671464
  0.5472853395172134  0.0837835632216722  0.5171051450671464
  0.0837835632306979  0.5472853395163598  0.0171051450671465
  0.4527146604827868  0.9162164367783278  0.0171051450671465
  0.3338027979939510  0.6661972020104678  0.4402580799399552
  0.6661972020060491  0.3338027979895322  0.9402580799399552
  0.6666305324077699  0.3333694675922210  0.5651129898998236
  0.3333694675922301  0.6666305324077787  0.0651129898998234
 
  0.00000000E+00  0.00000000E+00  0.00000000E+00
  0.00000000E+00  0.00000000E+00  0.00000000E+00
  0.00000000E+00  0.00000000E+00  0.00000000E+00
  0.00000000E+00  0.00000000E+00  0.00000000E+00
  0.00000000E+00  0.00000000E+00  0.00000000E+00
  0.00000000E+00  0.00000000E+00  0.00000000E+00
  0.00000000E+00  0.00000000E+00  0.00000000E+00
  0.00000000E+00  0.00000000E+00  0.00000000E+00
  0.00000000E+00  0.00000000E+00  0.00000000E+00
  0.00000000E+00  0.00000000E+00  0.00000000E+00
  0.00000000E+00  0.00000000E+00  0.00000000E+00
  0.00000000E+00  0.00000000E+00  0.00000000E+00
