In4 I4
1.0
   4.8587999999999996    0.0000000000000000    0.0000000000000003
   0.0000000000000021   12.9990860000000001    0.0000000000000008
   0.0000000000000000    0.0000000000000000    4.9523690000000000
In I
4 4
direct
   0.0000000000000000    0.6045900000000000    0.7500000000000000 In+
   0.5000000000000000    0.8954100000000000    0.2500000000000000 In+
   0.5000000000000000    0.1045900000000000    0.7500000000000000 In+
   0.0000000000000000    0.3954100000000000    0.2500000000000000 In+
   0.0000000000000000    0.8572090000000000    0.7500000000000000 I-
   0.5000000000000000    0.6427910000000000    0.2500000000000000 I-
   0.5000000000000000    0.3572090000000001    0.7500000000000000 I-
   0.0000000000000000    0.1427909999999999    0.2500000000000000 I-

