W2 Se4                                  
   1.00000000000000     
     3.3270700000000000    0.0000000000000000    0.0000000000000000
    -1.6635350000000000    2.8813270000000002    0.0000000000000000
     0.0000000000000000    0.0000000000000000   15.0689510000000002
   W    Se
     2     4
Direct
  0.3333330000000032  0.6666669999999968  0.2500000000000000
  0.6666669999999968  0.3333330000000032  0.7500000000000000
  0.6666669999999968  0.3333330000000032  0.3615690000000029
  0.3333330000000032  0.6666669999999968  0.8615690000000029
  0.6666669999999968  0.3333330000000032  0.1384309999999971
  0.3333330000000032  0.6666669999999968  0.6384309999999971
 
  0.00000000E+00  0.00000000E+00  0.00000000E+00
  0.00000000E+00  0.00000000E+00  0.00000000E+00
  0.00000000E+00  0.00000000E+00  0.00000000E+00
  0.00000000E+00  0.00000000E+00  0.00000000E+00
  0.00000000E+00  0.00000000E+00  0.00000000E+00
  0.00000000E+00  0.00000000E+00  0.00000000E+00
