B12 H16 N4 O20
1.0
4.432602 5.042074 0.000000
-4.432602 5.042074 0.000000
0.000000 1.911490 9.123465
B H N O
12 16 4 20
direct
0.809708 0.797020 0.726977 B
0.202980 0.190292 0.773023 B
0.190292 0.202980 0.273023 B
0.797020 0.809708 0.226977 B
0.930019 0.429332 0.679434 B
0.570668 0.069981 0.820566 B
0.069981 0.570668 0.320566 B
0.429332 0.930019 0.179434 B
0.033325 0.109333 0.569221 B
0.890667 0.966675 0.930779 B
0.966675 0.890667 0.430779 B
0.109333 0.033325 0.069221 B
0.145895 0.640887 0.890077 H
0.359113 0.854105 0.609923 H
0.854105 0.359113 0.109923 H
0.640887 0.145895 0.390077 H
0.318514 0.683514 0.993125 H
0.316486 0.681486 0.506875 H
0.681486 0.316486 0.006875 H
0.683514 0.318514 0.493125 H
0.369769 0.490160 0.879002 H
0.509840 0.630231 0.620998 H
0.630231 0.509840 0.120998 H
0.490160 0.369769 0.379002 H
0.205556 0.464320 0.029311 H
0.535680 0.794444 0.470689 H
0.794444 0.535680 0.970689 H
0.464320 0.205556 0.529311 H
0.265184 0.571304 0.947427 N
0.428696 0.734816 0.552573 N
0.734816 0.428696 0.052573 N
0.571304 0.265184 0.447427 N
0.926708 0.913304 0.592958 O
0.086696 0.073292 0.907042 O
0.073292 0.086696 0.407042 O
0.913304 0.926708 0.092958 O
0.911760 0.791673 0.856417 O
0.208327 0.088240 0.643583 O
0.088240 0.208327 0.143583 O
0.791673 0.911760 0.356417 O
0.095688 0.395561 0.751799 O
0.604439 0.904312 0.748201 O
0.904312 0.604439 0.248201 O
0.395561 0.095688 0.251799 O
0.790675 0.597096 0.690297 O
0.402904 0.209325 0.809703 O
0.209325 0.402904 0.309703 O
0.597096 0.790675 0.190297 O
0.892526 0.288645 0.594239 O
0.711355 0.107474 0.905761 O
0.107474 0.711355 0.405761 O
0.288645 0.892526 0.094239 O
