Tl1 Cr2 Fe1 O8
1.0
4.455486 2.780623 -0.403238
4.455486 -2.780623 -0.403238
-0.099081 0.000000 -8.286939
Tl Cr Fe O
1 2 1 8
direct
0.000000 0.000000 0.500000 Tl
0.368933 0.368933 0.805857 Cr
0.631067 0.631067 0.194143 Cr
0.000000 0.000000 0.000000 Fe
0.315004 0.315004 0.622524 O
0.684996 0.684996 0.377476 O
0.722724 0.224242 0.829106 O
0.277276 0.775758 0.170894 O
0.775758 0.277276 0.170894 O
0.224242 0.722724 0.829106 O
0.222338 0.222338 0.941654 O
0.777662 0.777662 0.058346 O
