Mo4 Rh4
1.0
5.523984 0.000000 0.000000
0.000000 4.447731 0.000000
0.000000 0.000000 4.847858
Mo Rh
4 4
direct
0.000000 0.750000 0.170935 Mo
0.500000 0.750000 0.170935 Mo
0.000000 0.250000 0.829065 Mo
0.500000 0.250000 0.829065 Mo
0.250000 0.750000 0.673804 Rh
0.750000 0.750000 0.673804 Rh
0.250000 0.250000 0.326196 Rh
0.750000 0.250000 0.326196 Rh
