Fe4 Te12 Br4 O28
1.0
7.502206 0.000000 0.000000
0.000000 11.098492 0.000000
0.000000 3.860522 10.590693
Fe Te Br O
4 12 4 28
direct
0.869989 0.412212 0.113259 Fe
0.369989 0.087788 0.886741 Fe
0.130011 0.587788 0.886741 Fe
0.630011 0.912212 0.113259 Fe
0.510443 0.232251 0.097757 Te
0.010443 0.267749 0.902243 Te
0.489557 0.767749 0.902243 Te
0.989557 0.732251 0.097757 Te
0.974127 0.067143 0.233043 Te
0.474127 0.432857 0.766957 Te
0.025873 0.932857 0.766957 Te
0.525873 0.567143 0.233043 Te
0.101505 0.427179 0.367447 Te
0.601505 0.072821 0.632553 Te
0.898495 0.572821 0.632553 Te
0.398495 0.927179 0.367447 Te
0.712189 0.378397 0.493994 Br
0.212189 0.121603 0.506006 Br
0.287811 0.621603 0.506006 Br
0.787811 0.878397 0.493994 Br
0.509806 0.088204 0.039539 O
0.009806 0.411796 0.960461 O
0.490194 0.911796 0.960461 O
0.990194 0.588204 0.039539 O
0.760978 0.239061 0.130130 O
0.260978 0.260939 0.869870 O
0.239022 0.760939 0.869870 O
0.739022 0.739061 0.130130 O
0.108138 0.166773 0.087557 O
0.608138 0.333227 0.912443 O
0.891862 0.833227 0.912443 O
0.391862 0.666773 0.087557 O
0.641952 0.470640 0.145827 O
0.141952 0.029360 0.854173 O
0.358048 0.529360 0.854173 O
0.858048 0.970640 0.145827 O
0.001522 0.341510 0.263589 O
0.501522 0.158490 0.736411 O
0.998478 0.658490 0.736411 O
0.498478 0.841510 0.263589 O
0.328497 0.440712 0.277754 O
0.828497 0.059288 0.722246 O
0.671503 0.559288 0.722246 O
0.171503 0.940712 0.277754 O
0.994451 0.405303 0.721697 O
0.494451 0.094697 0.278303 O
0.005549 0.594697 0.278303 O
0.505549 0.905303 0.721697 O
