Cr4 H8
1.0
   4.1062360000000000    0.0000000000000000    0.0000000000000003
   0.0000000000000007    4.1062360000000000    0.0000000000000003
   0.0000000000000000    0.0000000000000000    4.1062360000000000
Cr H
4 8
direct
   0.0000000000000000    0.0000000000000000    0.0000000000000000 Cr2+
   0.0000000000000000    0.5000000000000000    0.5000000000000000 Cr2+
   0.5000000000000000    0.0000000000000000    0.5000000000000000 Cr2+
   0.5000000000000000    0.5000000000000000    0.0000000000000000 Cr2+
   0.2500000000000000    0.7500000000000000    0.7500000000000000 H-
   0.2500000000000000    0.2500000000000000    0.7500000000000000 H-
   0.2500000000000000    0.2500000000000000    0.2500000000000000 H-
   0.2500000000000000    0.7500000000000000    0.2500000000000000 H-
   0.7500000000000000    0.7500000000000000    0.2500000000000000 H-
   0.7500000000000000    0.2500000000000000    0.2500000000000000 H-
   0.7500000000000000    0.2500000000000000    0.7500000000000000 H-
   0.7500000000000000    0.7500000000000000    0.7500000000000000 H-

