Mo2 S4                                  
   1.00000000000000     
     3.3557052669686458    0.0000000000000000   -0.0000000000000000
    -1.6778526334843229    2.9061251974261983    0.0000000000000000
     0.0000000000000000   -0.0000000000000000   14.7432397876913068
   Mo   S    Te
     2     2     2
Direct
  0.3333330000000032  0.6666669999999968  0.2500000000000000
  0.6666669999999968  0.3333330000000032  0.7500000000000000
  0.6666669999999968  0.3333330000000032  0.3521774974387094
  0.6666669999999968  0.3333330000000032  0.1478225025612905
  0.3333330000000032  0.6666669999999968  0.8781779118102043
  0.3333330000000032  0.6666669999999968  0.6218220881897957
 
  0.00000000E+00  0.00000000E+00  0.00000000E+00
  0.00000000E+00  0.00000000E+00  0.00000000E+00
  0.00000000E+00  0.00000000E+00  0.00000000E+00
  0.00000000E+00  0.00000000E+00  0.00000000E+00
  0.00000000E+00  0.00000000E+00  0.00000000E+00
  0.00000000E+00  0.00000000E+00  0.00000000E+00
