Sc4 H8
1.0
   4.7800000000000002    0.0000000000000000    0.0000000000000003
   0.0000000000000008    4.7800000000000002    0.0000000000000003
   0.0000000000000000    0.0000000000000000    4.7800000000000002
Sc H
4 8
direct
   0.0000000000000000    0.0000000000000000    0.0000000000000000 Sc2+
   0.0000000000000000    0.5000000000000000    0.5000000000000000 Sc2+
   0.5000000000000000    0.0000000000000000    0.5000000000000000 Sc2+
   0.5000000000000000    0.5000000000000000    0.0000000000000000 Sc2+
   0.2500000000000000    0.2500000000000000    0.7500000000000000 H-
   0.2500000000000000    0.7500000000000000    0.7500000000000000 H-
   0.2500000000000000    0.7500000000000000    0.2500000000000000 H-
   0.2500000000000000    0.2500000000000000    0.2500000000000000 H-
   0.7500000000000000    0.2500000000000000    0.2500000000000000 H-
   0.7500000000000000    0.7500000000000000    0.2500000000000000 H-
   0.7500000000000000    0.7500000000000000    0.7500000000000000 H-
   0.7500000000000000    0.2500000000000000    0.7500000000000000 H-

