Ag6 Sb6 Se12 F36
1.0
5.555901 11.248757 0.000000
-5.555901 11.248757 0.000000
0.000000 5.298610 9.589817
Ag Sb Se F
6 6 12 36
direct
0.517826 0.482174 0.250000 Ag
0.482174 0.517826 0.750000 Ag
0.810591 0.853790 0.654811 Ag
0.146210 0.189409 0.845189 Ag
0.189409 0.146210 0.345189 Ag
0.853790 0.810591 0.154811 Ag
0.000000 0.500000 0.000000 Sb
0.500000 0.000000 0.500000 Sb
0.019045 0.980955 0.750000 Sb
0.980955 0.019045 0.250000 Sb
0.000000 0.500000 0.500000 Sb
0.500000 0.000000 0.000000 Sb
0.713172 0.377526 0.896037 Se
0.622474 0.286828 0.603963 Se
0.286828 0.622474 0.103963 Se
0.377526 0.713172 0.396037 Se
0.627199 0.579005 0.962258 Se
0.420995 0.372801 0.537742 Se
0.372801 0.420995 0.037742 Se
0.579005 0.627199 0.462258 Se
0.408347 0.720097 0.906141 Se
0.279903 0.591653 0.593859 Se
0.591653 0.279903 0.093859 Se
0.720097 0.408347 0.406141 Se
0.911813 0.637530 0.849046 F
0.362470 0.088187 0.650954 F
0.088187 0.362470 0.150954 F
0.637530 0.911813 0.349046 F
0.046830 0.619656 0.002913 F
0.380344 0.953170 0.497087 F
0.953170 0.380344 0.997087 F
0.619656 0.046830 0.502913 F
0.827884 0.583312 0.130976 F
0.416688 0.172116 0.369024 F
0.172116 0.416688 0.869024 F
0.583312 0.827884 0.630976 F
0.935524 0.898033 0.739976 F
0.101967 0.064476 0.760024 F
0.064476 0.101967 0.260024 F
0.898033 0.935524 0.239976 F
0.846117 0.153883 0.750000 F
0.153883 0.846117 0.250000 F
0.191922 0.808078 0.750000 F
0.808078 0.191922 0.250000 F
0.966343 0.928565 0.950573 F
0.071435 0.033657 0.549427 F
0.033657 0.071435 0.049427 F
0.928565 0.966343 0.450573 F
0.929111 0.678332 0.522575 F
0.321668 0.070889 0.977425 F
0.070889 0.321668 0.477425 F
0.678332 0.929111 0.022575 F
0.823657 0.515944 0.597570 F
0.484056 0.176343 0.902430 F
0.176343 0.484056 0.402430 F
0.515944 0.823657 0.097570 F
0.943851 0.589992 0.326199 F
0.410008 0.056149 0.173801 F
0.056149 0.410008 0.673801 F
0.589992 0.943851 0.826199 F
