Mo4 Br12                                
   1.00000000000000     
     6.1194780000000000    0.0000000000000000    0.0000000000000000
     0.0000000000000000    7.2860449999999997    0.0000000000000000
     0.0000000000000000    0.0000000000000000   12.6802659999999996
   Mo   Br
     4    12
Direct
  0.7288070000000033  0.7469729999999970  0.5000000000000000
  0.2288070000000033  0.2530270000000030  0.0000000000000000
  0.2711929999999967  0.7469729999999970  0.5000000000000000
  0.7711929999999967  0.2530270000000030  0.0000000000000000
  0.5000000000000000  0.8943549999999973  0.6475050000000024
  0.0000000000000000  0.1056450000000027  0.8524949999999976
  0.5000000000000000  0.8943549999999973  0.3524949999999976
  0.0000000000000000  0.1056450000000027  0.1475050000000024
  0.0000000000000000  0.5489900000000034  0.0000000000000000
  0.5000000000000000  0.4510099999999966  0.5000000000000000
  0.5000000000000000  0.9725060000000028  0.0000000000000000
  0.0000000000000000  0.0274939999999972  0.5000000000000000
  0.0000000000000000  0.6073400000000007  0.3604720000000015
  0.5000000000000000  0.3926599999999993  0.1395279999999985
  0.0000000000000000  0.6073400000000007  0.6395279999999985
  0.5000000000000000  0.3926599999999993  0.8604720000000015
 
  0.00000000E+00  0.00000000E+00  0.00000000E+00
  0.00000000E+00  0.00000000E+00  0.00000000E+00
  0.00000000E+00  0.00000000E+00  0.00000000E+00
  0.00000000E+00  0.00000000E+00  0.00000000E+00
  0.00000000E+00  0.00000000E+00  0.00000000E+00
  0.00000000E+00  0.00000000E+00  0.00000000E+00
  0.00000000E+00  0.00000000E+00  0.00000000E+00
  0.00000000E+00  0.00000000E+00  0.00000000E+00
  0.00000000E+00  0.00000000E+00  0.00000000E+00
  0.00000000E+00  0.00000000E+00  0.00000000E+00
  0.00000000E+00  0.00000000E+00  0.00000000E+00
  0.00000000E+00  0.00000000E+00  0.00000000E+00
  0.00000000E+00  0.00000000E+00  0.00000000E+00
  0.00000000E+00  0.00000000E+00  0.00000000E+00
  0.00000000E+00  0.00000000E+00  0.00000000E+00
  0.00000000E+00  0.00000000E+00  0.00000000E+00
