As2 Cl10
1.0
   6.7894550000000002    0.0000000000000000    0.0000000000000004
   0.0000000000000012    7.7368530000000000    0.0000000000000005
   0.0000000000000000    0.0000000000000000    8.0634639999999997
As Cl
2 10
direct
   0.8251350000000000    0.0000000000000000    0.5000000000000000 As5+
   0.1748650000000000    0.5000000000000000    0.0000000000000000 As5+
   0.8261770000000001    0.0000000000000000    0.2202330000000000 Cl-
   0.8261770000000001    0.0000000000000000    0.7797670000000000 Cl-
   0.3392470000000000    0.2583760000000000    0.0000000000000000 Cl-
   0.3392470000000000    0.7416240000000001    0.0000000000000000 Cl-
   0.6607529999999999    0.7583759999999999    0.5000000000000000 Cl-
   0.6607529999999999    0.2416240000000000    0.5000000000000000 Cl-
   0.8547680000000000    0.5000000000000000    0.0000000000000000 Cl-
   0.1452320000000000    0.0000000000000000    0.5000000000000000 Cl-
   0.1738229999999999    0.5000000000000000    0.7202330000000000 Cl-
   0.1738229999999999    0.5000000000000000    0.2797670000000000 Cl-

