Hg6 Te4 Cl4
1.0
-4.828330 4.828330 4.828330
4.828330 -4.828330 4.828330
4.828330 4.828330 -4.828330
Hg Te Cl
6 4 4
direct
0.932656 0.250000 0.182656 Hg
0.750000 0.317344 0.567344 Hg
0.182656 0.932656 0.250000 Hg
0.250000 0.182656 0.932656 Hg
0.317344 0.567344 0.750000 Hg
0.567344 0.750000 0.317344 Hg
0.557451 0.500000 0.000000 Te
0.942549 0.942549 0.942549 Te
0.500000 0.000000 0.557451 Te
0.000000 0.557451 0.500000 Te
0.018840 0.500000 0.000000 Cl
0.481160 0.481160 0.481160 Cl
0.000000 0.018840 0.500000 Cl
0.500000 0.000000 0.018840 Cl
