Mo2 S4                                  
   1.00000000000000     
     3.2477470495742491   -0.0000000000000000    0.0000000000000000
    -1.6238735247871248    2.8126307103204446    0.0000000000000000
    -0.0000000000000000   -0.0000000000000000   15.1151500474898643
   Mo   S    Se
     2     2     2
Direct
  0.3333330000000032  0.6666669999999968  0.2500000000000000
  0.6666669999999968  0.3333330000000032  0.7500000000000000
  0.6666669999999968  0.3333330000000032  0.3518872787255699
  0.6666669999999968  0.3333330000000032  0.1481127212744301
  0.3333330000000032  0.6666669999999968  0.8621627816942843
  0.3333330000000032  0.6666669999999968  0.6378372183057157
 
  0.00000000E+00  0.00000000E+00  0.00000000E+00
  0.00000000E+00  0.00000000E+00  0.00000000E+00
  0.00000000E+00  0.00000000E+00  0.00000000E+00
  0.00000000E+00  0.00000000E+00  0.00000000E+00
  0.00000000E+00  0.00000000E+00  0.00000000E+00
  0.00000000E+00  0.00000000E+00  0.00000000E+00
