K4 F4
1.0
0.000000 5.423984 5.423984
5.423984 0.000000 5.423984
2.711992 2.711992 0.000000
K F
4 4
direct
0.000000 0.000000 0.000000 K
0.000000 0.500000 1.000000 K
0.500000 0.000000 1.000000 K
0.500000 0.500000 1.000000 K
0.250000 0.250000 0.500000 F
0.250000 0.750000 0.500000 F
0.750000 0.250000 0.500000 F
0.750000 0.750000 0.500000 F
