Na4 O2
1.0
0.000000 5.595088 5.595088
2.797544 0.000000 2.797544
2.797544 2.797544 0.000000
Na O
4 2
direct
0.375000 0.750000 0.750000 Na
0.875000 0.750000 0.750000 Na
0.125000 0.250000 0.250000 Na
0.625000 0.250000 0.250000 Na
0.000000 0.000000 0.000000 O
0.500000 0.000000 1.000000 O
