Rb1 Se1 Br3
1.0
5.523112 0.000000 0.000000
0.000000 5.523112 0.000000
0.000000 0.000000 5.517727
Rb Se Br
1 1 3
direct
0.500000 0.500000 0.997446 Rb
0.000000 0.000000 0.485512 Se
0.000000 0.500000 0.485084 Br
0.000000 0.000000 0.985393 Br
0.500000 0.000000 0.485084 Br
