Al4 N4
1.0
3.128588 -5.418874 0.000000
1.564294 2.709437 0.000000
0.000000 0.000000 5.016955
Al N
4 4
direct
0.333334 0.333333 0.499287 Al
0.833334 0.333333 0.499287 Al
0.166666 0.666667 0.999287 Al
0.666667 0.666667 0.999287 Al
0.333334 0.333333 0.880713 N
0.833334 0.333333 0.880713 N
0.166666 0.666667 0.380713 N
0.666667 0.666667 0.380713 N
