C4                                      
   1.00000000000000     
     2.4679093665121381    0.0000000000000001   -0.0000000000000000
    -1.2339546832560691    2.1372725317359822    0.0000000000000000
    -0.0000000000000000   -0.0000000000000000    7.6507549743373477
   C 
     4
Direct
  0.0000000000000000  0.0000000000000000  0.2500000000000000
 -0.0000000000000000 -0.0000000000000000  0.7500000000000000
  0.6666669999999968  0.3333330000000032  0.2500000000000000
  0.3333330000000032  0.6666669999999968  0.7500000000000000
 
  0.00000000E+00  0.00000000E+00  0.00000000E+00
  0.00000000E+00  0.00000000E+00  0.00000000E+00
  0.00000000E+00  0.00000000E+00  0.00000000E+00
  0.00000000E+00  0.00000000E+00  0.00000000E+00
