C4                                      
   1.00000000000000     
     2.4722820241638059    0.0000000000000000    0.0000000000000000
    -1.2361410120819030    2.1410593662365716    0.0000000000000000
     0.0000000000000000    0.0000000000000000    6.8773135166715180
   C 
     4
Direct
  0.0000000000000000  0.0000000000000000  0.2500000000000000
  0.0000000000000000  0.0000000000000000  0.7500000000000000
  0.6666669999999968  0.3333330000000032  0.2500000000000000
  0.3333330000000032  0.6666669999999968  0.7500000000000000
 
  0.00000000E+00  0.00000000E+00  0.00000000E+00
  0.00000000E+00  0.00000000E+00  0.00000000E+00
  0.00000000E+00  0.00000000E+00  0.00000000E+00
  0.00000000E+00  0.00000000E+00  0.00000000E+00
