Sr2 P4 Xe6 F36
1.0
6.129782 6.297154 0.000000
-6.129782 6.297154 0.000000
0.000000 1.706543 11.052612
Sr P Xe F
2 4 6 36
direct
0.715360 0.715360 0.774080 Sr
0.284640 0.284640 0.225920 Sr
0.200435 0.200435 0.906608 P
0.799565 0.799565 0.093392 P
0.000000 0.500000 0.500000 P
0.500000 0.000000 0.500000 P
0.792771 0.318469 0.165467 Xe
0.681531 0.207229 0.834533 Xe
0.207229 0.681531 0.834533 Xe
0.000000 0.000000 0.500000 Xe
0.500000 0.500000 0.500000 Xe
0.318469 0.792771 0.165467 Xe
0.370589 0.991621 0.615230 F
0.897185 0.897185 0.171590 F
0.334960 0.068871 0.909540 F
0.601847 0.862020 0.572350 F
0.102815 0.102815 0.828410 F
0.409249 0.870153 0.442796 F
0.709445 0.709445 0.214294 F
0.697415 0.697415 0.008886 F
0.015916 0.363550 0.189630 F
0.117036 0.117036 0.035001 F
0.636450 0.984084 0.810370 F
0.991621 0.370589 0.615230 F
0.567159 0.278313 0.136523 F
0.665040 0.931129 0.090460 F
0.278313 0.567159 0.136523 F
0.302585 0.302585 0.991114 F
0.984084 0.636450 0.810370 F
0.290555 0.290555 0.785706 F
0.432841 0.721687 0.863477 F
0.590751 0.129847 0.557204 F
0.721687 0.432841 0.863477 F
0.912935 0.912935 0.673006 F
0.870153 0.409249 0.442796 F
0.540600 0.540600 0.673594 F
0.882964 0.882964 0.964999 F
0.068871 0.334960 0.909540 F
0.137980 0.398153 0.427650 F
0.398153 0.137980 0.427650 F
0.087065 0.087065 0.326994 F
0.862020 0.601847 0.572350 F
0.459400 0.459400 0.326406 F
0.629411 0.008379 0.384770 F
0.129847 0.590751 0.557204 F
0.008379 0.629411 0.384770 F
0.363550 0.015916 0.189630 F
0.931129 0.665040 0.090460 F
