V8
1.0
-5.985088 5.985088 5.985088
2.992544 -2.992544 2.992544
1.496272 1.496272 -1.496272
V
8
direct
0.000000 0.000000 0.000000 V
1.000000 0.500000 0.000000 V
0.500000 0.000000 0.000000 V
0.500000 0.500000 0.000000 V
0.250000 0.000000 0.000000 V
0.250000 0.500000 0.000000 V
0.750000 0.000000 0.000000 V
0.750000 0.500000 0.000000 V
