Li6 Mn2 P4 H2 O16
1.0
8.423452 0.000000 0.000000
0.000000 4.959883 0.000000
0.000000 1.840577 7.549177
Li Mn P H O
6 2 4 2 16
direct
0.793529 0.080871 0.683870 Li
0.640043 0.135172 0.388052 Li
0.140043 0.864828 0.611948 Li
0.293529 0.919129 0.316130 Li
0.846524 0.609858 0.944278 Li
0.346524 0.390142 0.055722 Li
0.496540 0.750483 0.748107 Mn
0.996540 0.249517 0.251893 Mn
0.642546 0.115652 0.026211 P
0.142546 0.884348 0.973789 P
0.857655 0.622677 0.529232 P
0.357655 0.377323 0.470768 P
0.499624 0.702999 0.242328 H
0.999624 0.297001 0.757672 H
0.480548 0.174190 0.573190 O
0.795142 0.241233 0.086016 O
0.184817 0.086464 0.093610 O
0.553715 0.960329 0.199902 O
0.980548 0.825810 0.426810 O
0.708492 0.782207 0.564902 O
0.053715 0.039671 0.800098 O
0.684817 0.913536 0.906390 O
0.322159 0.627019 0.552646 O
0.928104 0.493519 0.723218 O
0.295142 0.758767 0.913984 O
0.034090 0.651432 0.077171 O
0.428104 0.506481 0.276782 O
0.822159 0.372981 0.447354 O
0.208492 0.217793 0.435098 O
0.534090 0.348568 0.922829 O
