W2 Se4                                  
   1.00000000000000     
     3.3264311240169873   -0.0000000000000000    0.0000000000000000
    -1.6632155620084936    2.8807737172495909   -0.0000000000000000
    -0.0000000000000000    0.0000000000000000   15.0677551694096206
   W    Se
     2     4
Direct
  0.3333330000000032  0.6666669999999968  0.2500000000000000
  0.6666669999999968  0.3333330000000032  0.7500000000000000
  0.6666669999999968  0.3333330000000032  0.3615617744881701
  0.3333330000000032  0.6666669999999968  0.8615617744881701
  0.6666669999999968  0.3333330000000032  0.1384382255118299
  0.3333330000000032  0.6666669999999968  0.6384382255118299
 
  0.00000000E+00  0.00000000E+00  0.00000000E+00
  0.00000000E+00  0.00000000E+00  0.00000000E+00
  0.00000000E+00  0.00000000E+00  0.00000000E+00
  0.00000000E+00  0.00000000E+00  0.00000000E+00
  0.00000000E+00  0.00000000E+00  0.00000000E+00
  0.00000000E+00  0.00000000E+00  0.00000000E+00
