H12 N4                                  
   1.00000000000000     
     5.1416550384476398   -0.0000000000000000   -0.0000000000000000
     0.0000000000000000    5.1416550384476398    0.0000000000000000
     0.0000000000000000   -0.0000000000000000    5.1416550384476398
   H    N 
    12     4
Direct
  0.1450426856858553  0.7296274288898770  0.5976673881482696
  0.6450426856858555  0.7703725711101230  0.4023326118517303
  0.8549573143141445  0.2296274288898768  0.9023326118517304
  0.7703725711101230  0.4023326118517303  0.6450426856858555
  0.3549573143141447  0.2703725711101231  0.0976673881482697
  0.0976673881482697  0.3549573143141447  0.2703725711101231
  0.2703725711101231  0.0976673881482697  0.3549573143141447
  0.2296274288898768  0.9023326118517304  0.8549573143141445
  0.5976673881482696  0.1450426856858553  0.7296274288898770
  0.7296274288898770  0.5976673881482696  0.1450426856858553
  0.4023326118517303  0.6450426856858555  0.7703725711101230
  0.9023326118517304  0.8549573143141445  0.2296274288898768
  0.8018313962968702  0.6981686037031298  0.3018313962968777
  0.6981686037031298  0.3018313962968777  0.8018313962968702
  0.3018313962968777  0.8018313962968702  0.6981686037031298
  0.1981686037031225  0.1981686037031225  0.1981686037031225
 
  0.00000000E+00  0.00000000E+00  0.00000000E+00
  0.00000000E+00  0.00000000E+00  0.00000000E+00
  0.00000000E+00  0.00000000E+00  0.00000000E+00
  0.00000000E+00  0.00000000E+00  0.00000000E+00
  0.00000000E+00  0.00000000E+00  0.00000000E+00
  0.00000000E+00  0.00000000E+00  0.00000000E+00
  0.00000000E+00  0.00000000E+00  0.00000000E+00
  0.00000000E+00  0.00000000E+00  0.00000000E+00
  0.00000000E+00  0.00000000E+00  0.00000000E+00
  0.00000000E+00  0.00000000E+00  0.00000000E+00
  0.00000000E+00  0.00000000E+00  0.00000000E+00
  0.00000000E+00  0.00000000E+00  0.00000000E+00
  0.00000000E+00  0.00000000E+00  0.00000000E+00
  0.00000000E+00  0.00000000E+00  0.00000000E+00
  0.00000000E+00  0.00000000E+00  0.00000000E+00
  0.00000000E+00  0.00000000E+00  0.00000000E+00
