Ni4 H4
1.0
   3.7122139999999999    0.0000000000000000    0.0000000000000002
   0.0000000000000006    3.7122139999999999    0.0000000000000002
   0.0000000000000000    0.0000000000000000    3.7122139999999999
Ni H
4 4
direct
   0.0000000000000000    0.0000000000000000    0.0000000000000000 Ni+
   0.0000000000000000    0.5000000000000000    0.5000000000000000 Ni+
   0.5000000000000000    0.0000000000000000    0.5000000000000000 Ni+
   0.5000000000000000    0.5000000000000000    0.0000000000000000 Ni+
   0.5000000000000000    0.0000000000000000    0.0000000000000000 H-
   0.5000000000000000    0.5000000000000000    0.5000000000000000 H-
   0.0000000000000000    0.0000000000000000    0.5000000000000000 H-
   0.0000000000000000    0.5000000000000000    0.0000000000000000 H-

