B2 N2                                   
   1.00000000000000     
     2.5171932554536589    0.0000000000000000    0.0000000000000000
    -1.2585966277268295    2.1799538349765135    0.0000000000000000
     0.0000000000000000    0.0000000000000000    6.7283405861649879
   B    N 
     2     2
Direct
  0.6666669999999968  0.3333330000000032  0.7500000000000000
  0.3333330000000032  0.6666669999999968  0.2500000000000000
  0.6666669999999968  0.3333330000000032  0.2500000000000000
  0.3333330000000032  0.6666669999999968  0.7500000000000000
 
  0.00000000E+00  0.00000000E+00  0.00000000E+00
  0.00000000E+00  0.00000000E+00  0.00000000E+00
  0.00000000E+00  0.00000000E+00  0.00000000E+00
  0.00000000E+00  0.00000000E+00  0.00000000E+00
