Hg4 S4
1.0
5.468728 0.000000 0.000000
0.000000 5.468728 0.000000
0.000000 0.000000 5.468728
Hg S
4 4
direct
0.250000 0.250000 0.750000 Hg
0.250000 0.750000 0.250000 Hg
0.750000 0.250000 0.250000 Hg
0.750000 0.750000 0.750000 Hg
0.000000 0.000000 0.500000 S
0.000000 0.500000 0.000000 S
0.500000 0.000000 0.000000 S
0.500000 0.500000 0.500000 S
