Mo2 Rh6
1.0
2.760599 -4.781497 0.000000
2.760599 4.781497 0.000000
0.000000 0.000000 4.386467
Mo Rh
2 6
direct
0.333333 0.666667 0.250000 Mo
0.666667 0.333333 0.750000 Mo
0.832873 0.665746 0.250000 Rh
0.167127 0.832873 0.750000 Rh
0.665746 0.832873 0.750000 Rh
0.334254 0.167127 0.250000 Rh
0.832873 0.167127 0.250000 Rh
0.167127 0.334254 0.750000 Rh
