Fe18 O18 F18
1.0
14.215547 -0.008685 0.000000
-0.008641 14.218035 0.000000
0.000000 0.000000 3.095632
Fe O F
18 18 18
direct
0.013413 0.997996 0.000000 Fe
0.003706 0.340532 0.000000 Fe
0.004828 0.657658 0.000000 Fe
0.146749 0.171516 0.500000 Fe
0.153799 0.498130 0.500000 Fe
0.148095 0.825233 0.500000 Fe
0.332235 0.000448 0.000000 Fe
0.346048 0.329907 0.000000 Fe
0.346257 0.665311 0.000000 Fe
0.487867 0.497544 0.500000 Fe
0.505269 0.182242 0.500000 Fe
0.499668 0.818455 0.500000 Fe
0.679134 0.997197 0.000000 Fe
0.672650 0.324311 0.000000 Fe
0.667109 0.676937 0.000000 Fe
0.820375 0.164697 0.500000 Fe
0.850851 0.501803 0.500000 Fe
0.821228 0.830202 0.500000 Fe
0.061800 0.272168 0.500000 O
0.066742 0.602215 0.500000 O
0.066662 0.934966 0.500000 O
0.101553 0.102426 0.000000 O
0.104858 0.434732 0.000000 O
0.098577 0.765520 0.000000 O
0.394476 0.262567 0.500000 O
0.400459 0.603938 0.500000 O
0.436198 0.433493 0.000000 O
0.430680 0.774333 0.000000 O
0.566674 0.233847 0.000000 O
0.602541 0.730519 0.500000 O
0.735833 0.273390 0.500000 O
0.729983 0.933530 0.500000 O
0.765646 0.102182 0.000000 O
0.772086 0.764771 0.000000 O
0.897159 0.569730 0.000000 O
0.933992 0.395993 0.500000 O
0.230371 0.233788 0.000000 F
0.234780 0.566644 0.000000 F
0.234825 0.897619 0.000000 F
0.268761 0.069108 0.500000 F
0.266427 0.733092 0.500000 F
0.269635 0.398882 0.500000 F
0.401920 0.937379 0.500000 F
0.436226 0.098026 0.000000 F
0.568011 0.562451 0.000000 F
0.561995 0.901962 0.000000 F
0.596186 0.063400 0.500000 F
0.604243 0.402640 0.500000 F
0.728051 0.597639 0.500000 F
0.765267 0.439449 0.000000 F
0.898987 0.225325 0.000000 F
0.898758 0.900909 0.000000 F
0.934323 0.063736 0.500000 F
0.936035 0.737511 0.500000 F
