Li4 Cr4 P12 O36
1.0
5.532192 0.000000 0.000000
0.000000 10.725322 0.000000
0.000000 0.000000 11.669296
Li Cr P O
4 4 12 36
direct
0.083669 0.116744 0.076863 Li
0.583669 0.383256 0.923137 Li
0.916331 0.616744 0.423137 Li
0.416331 0.883256 0.576863 Li
0.589217 0.031041 0.859153 Cr
0.089217 0.468959 0.140847 Cr
0.410783 0.531041 0.640847 Cr
0.910783 0.968959 0.359153 Cr
0.877854 0.075275 0.622917 P
0.373546 0.150190 0.365690 P
0.064721 0.198322 0.820663 P
0.564721 0.301678 0.179337 P
0.873546 0.349810 0.634310 P
0.377854 0.424725 0.377083 P
0.122146 0.575275 0.877083 P
0.626454 0.650190 0.134310 P
0.935279 0.698322 0.679337 P
0.435279 0.801678 0.320663 P
0.126454 0.849810 0.865690 P
0.622146 0.924725 0.122917 P
0.513548 0.009029 0.034449 O
0.644607 0.034873 0.679829 O
0.500199 0.059468 0.441115 O
0.083272 0.091917 0.721397 O
0.125981 0.120317 0.318084 O
0.825876 0.184473 0.883488 O
0.294033 0.198803 0.888106 O
0.551813 0.178043 0.257318 O
0.860461 0.214471 0.571951 O
0.360461 0.285529 0.428049 O
0.051813 0.321957 0.742682 O
0.794033 0.301197 0.111894 O
0.325876 0.315527 0.116512 O
0.625981 0.379683 0.681916 O
0.583272 0.408083 0.278603 O
0.000199 0.440532 0.558885 O
0.144607 0.465127 0.320171 O
0.013548 0.490971 0.965551 O
0.486452 0.509029 0.465551 O
0.355393 0.534873 0.820171 O
0.499801 0.559468 0.058885 O
0.916728 0.591917 0.778603 O
0.874019 0.620317 0.181916 O
0.174124 0.684473 0.616512 O
0.705967 0.698803 0.611894 O
0.448187 0.678043 0.242682 O
0.139539 0.714471 0.928049 O
0.639539 0.785529 0.071951 O
0.948187 0.821957 0.757318 O
0.205967 0.801197 0.388106 O
0.674124 0.815527 0.383488 O
0.374019 0.879683 0.818084 O
0.416728 0.908083 0.221397 O
0.999801 0.940532 0.941115 O
0.855393 0.965127 0.179829 O
0.986452 0.990971 0.534449 O
