Nb4 Cl12 O4                             
   1.00000000000000     
    11.5011349999999997    0.0000000000000000    0.0000000000000000
     0.0000000000000000   11.5011349999999997    0.0000000000000000
     0.0000000000000000    0.0000000000000000    4.0010719999999997
   Nb   Cl   O 
     4    12     4
Direct
  0.8769920000000013  0.6230079999999987  0.6955659999999995
  0.6230079999999987  0.1230079999999987  0.3044340000000005
  0.1230079999999987  0.3769920000000013  0.6955659999999995
  0.3769920000000013  0.8769920000000013  0.3044340000000005
  0.4016420000000025  0.0983579999999975  0.2377600000000015
  0.8995979999999975  0.8206649999999982  0.7548910000000006
  0.1004020000000025  0.1793350000000018  0.7548910000000006
  0.9016420000000025  0.4016420000000025  0.7622399999999985
  0.5983579999999975  0.9016420000000025  0.2377600000000015
  0.6793350000000018  0.6004020000000025  0.7548910000000006
  0.3206649999999982  0.3995979999999975  0.7548910000000006
  0.1793350000000018  0.8995979999999975  0.2451089999999994
  0.0983579999999975  0.5983579999999975  0.7622399999999985
  0.3995979999999975  0.6793350000000018  0.2451089999999994
  0.6004020000000025  0.3206649999999982  0.2451089999999994
  0.8206649999999982  0.1004020000000025  0.2451089999999994
  0.6148179999999996  0.1148179999999996  0.7523470000000003
  0.8851820000000004  0.6148179999999996  0.2476529999999997
  0.1148179999999996  0.3851820000000004  0.2476529999999997
  0.3851820000000004  0.8851820000000004  0.7523470000000003
 
  0.00000000E+00  0.00000000E+00  0.00000000E+00
  0.00000000E+00  0.00000000E+00  0.00000000E+00
  0.00000000E+00  0.00000000E+00  0.00000000E+00
  0.00000000E+00  0.00000000E+00  0.00000000E+00
  0.00000000E+00  0.00000000E+00  0.00000000E+00
  0.00000000E+00  0.00000000E+00  0.00000000E+00
  0.00000000E+00  0.00000000E+00  0.00000000E+00
  0.00000000E+00  0.00000000E+00  0.00000000E+00
  0.00000000E+00  0.00000000E+00  0.00000000E+00
  0.00000000E+00  0.00000000E+00  0.00000000E+00
  0.00000000E+00  0.00000000E+00  0.00000000E+00
  0.00000000E+00  0.00000000E+00  0.00000000E+00
  0.00000000E+00  0.00000000E+00  0.00000000E+00
  0.00000000E+00  0.00000000E+00  0.00000000E+00
  0.00000000E+00  0.00000000E+00  0.00000000E+00
  0.00000000E+00  0.00000000E+00  0.00000000E+00
  0.00000000E+00  0.00000000E+00  0.00000000E+00
  0.00000000E+00  0.00000000E+00  0.00000000E+00
  0.00000000E+00  0.00000000E+00  0.00000000E+00
  0.00000000E+00  0.00000000E+00  0.00000000E+00
