Cd4 Pd4
1.0
6.121410 0.000000 0.000000
0.000000 6.121410 0.000000
0.000000 0.000000 3.763233
Cd Pd
4 4
direct
0.000000 0.000000 0.000000 Cd
0.000000 0.500000 0.000000 Cd
0.500000 0.000000 0.000000 Cd
0.500000 0.500000 0.000000 Cd
0.250000 0.250000 0.500000 Pd
0.250000 0.750000 0.500000 Pd
0.750000 0.250000 0.500000 Pd
0.750000 0.750000 0.500000 Pd
