S9                                      
   1.00000000000000     
     8.7634479586421179   -0.0000000000000000   -0.0000000000000000
    -4.3817239793210589    7.5893684252935483    0.0000000000000000
    -0.0000000000000000   -0.0000000000000000    4.4044604937608280
   S 
     9
Direct
  0.0962712587768368  0.0962712587760569  0.5000000000000000
  0.4377896079003680  0.6866932690243611  0.7270211113369264
  0.6866932690243153  0.4377896078991338  0.2729788886630736
  0.9037287412223833  0.0000000000000000  0.1666669999999968
  0.2489036611251888  0.5622103921008665  0.0603541113369296
  0.3133067309744504  0.7510963388747655  0.3936881113369303
  0.5622103920996783  0.2489036611252348  0.9396458886630704
  0.7510963388759997  0.3133067309756387  0.6063118886630697
  0.0000000000007799  0.9037287412239431  0.8333330000000032
 
  0.00000000E+00  0.00000000E+00  0.00000000E+00
  0.00000000E+00  0.00000000E+00  0.00000000E+00
  0.00000000E+00  0.00000000E+00  0.00000000E+00
  0.00000000E+00  0.00000000E+00  0.00000000E+00
  0.00000000E+00  0.00000000E+00  0.00000000E+00
  0.00000000E+00  0.00000000E+00  0.00000000E+00
  0.00000000E+00  0.00000000E+00  0.00000000E+00
  0.00000000E+00  0.00000000E+00  0.00000000E+00
  0.00000000E+00  0.00000000E+00  0.00000000E+00
