Mo8 H16 N4 O26
1.0
8.426068 0.000000 0.000000
-2.893259 7.978227 0.000000
-2.871245 -3.752493 9.286507
Mo H N O
8 16 4 26
direct
0.226657 0.539423 0.039377 Mo
0.773343 0.460577 0.960623 Mo
0.938977 0.119346 0.727716 Mo
0.061023 0.880654 0.272284 Mo
0.922017 0.504977 0.707289 Mo
0.077983 0.495023 0.292711 Mo
0.773896 0.849434 0.946272 Mo
0.226104 0.150566 0.053728 Mo
0.755852 0.121769 0.334870 H
0.244148 0.878231 0.665130 H
0.411965 0.088260 0.713420 H
0.588035 0.911740 0.286580 H
0.441976 0.904264 0.638188 H
0.558024 0.095736 0.361812 H
0.441402 0.958818 0.804802 H
0.558598 0.041182 0.195198 H
0.681808 0.552104 0.465751 H
0.318192 0.447896 0.534249 H
0.649595 0.742349 0.486143 H
0.350405 0.257651 0.513857 H
0.814400 0.720125 0.429310 H
0.185600 0.279875 0.570690 H
0.409589 0.405455 0.679892 H
0.590411 0.594545 0.320108 H
0.615439 0.043781 0.297037 N
0.384561 0.956219 0.702963 N
0.684388 0.653032 0.425778 N
0.315612 0.346968 0.574222 N
0.929007 0.019516 0.883748 O
0.070993 0.980484 0.116252 O
0.218727 0.305103 0.934381 O
0.781273 0.694897 0.065619 O
0.453910 0.660268 0.163248 O
0.546090 0.339732 0.836752 O
0.029832 0.660290 0.641609 O
0.970168 0.339710 0.358391 O
0.898428 0.350996 0.867199 O
0.101572 0.649004 0.132801 O
0.877120 0.641102 0.857666 O
0.122880 0.358898 0.142334 O
0.048518 0.009641 0.650950 O
0.951482 0.990359 0.349050 O
0.295280 0.015453 0.951758 O
0.704720 0.984547 0.048242 O
0.003334 0.312904 0.659082 O
0.996666 0.687096 0.340918 O
0.705833 0.987830 0.616397 O
0.294167 0.012170 0.383603 O
0.695872 0.385732 0.575901 O
0.304128 0.614268 0.424099 O
0.212941 0.621092 0.897793 O
0.787059 0.378908 0.102207 O
0.421658 0.278821 0.211307 O
0.578342 0.721179 0.788693 O
