Ge6 F16
1.0
   0.0000000000000000    5.0943969999999998    0.0000000000000000
   5.2090730000000001    0.0000000000000000    0.0000000000000000
   0.0000000000000000   -4.8955399999999987  -12.0608310000000021
Ge F
6 16
direct
   0.3832779999999998    0.8994469999999999    0.3312870000000001 Ge2.66666667+
   0.3832779999999998    0.6005530000000001    0.8312870000000001 Ge2.66666667+
   0.6167220000000002    0.1005530000000001    0.6687129999999999 Ge2.66666667+
   0.6167220000000002    0.3994469999999999    0.1687129999999999 Ge2.66666667+
   0.0000000000000000    0.5000000000000000    0.5000000000000000 Ge2.66666667+
   0.0000000000000000    0.0000000000000000    0.0000000000000000 Ge2.66666667+
   0.7763860000000000    0.7967819999999999    0.4404980000000001 F-
   0.7763860000000000    0.7032180000000001    0.9404980000000001 F-
   0.2236140000000000    0.2032180000000001    0.5595019999999999 F-
   0.2236140000000000    0.2967819999999999    0.0595019999999999 F-
   0.3170039999999998    0.6906679999999998    0.5339000000000000 F-
   0.3170039999999998    0.8093320000000002    0.0339000000000000 F-
   0.6829960000000002    0.3093320000000002    0.4661000000000000 F-
   0.6829960000000002    0.1906679999999998    0.9661000000000000 F-
   0.9878869999999997    0.5631720000000000    0.6359900000000001 F-
   0.9878869999999997    0.9368280000000000    0.1359900000000001 F-
   0.0121130000000003    0.4368280000000000    0.3640099999999999 F-
   0.0121130000000003    0.0631720000000000    0.8640099999999999 F-
   0.4150069999999999    0.5773150000000000    0.2515990000000000 F-
   0.4150069999999999    0.9226850000000000    0.7515990000000001 F-
   0.5849930000000001    0.4226850000000000    0.7484010000000000 F-
   0.5849930000000001    0.0773150000000000    0.2484010000000000 F-

