Sn8
1.0
0.000000 6.646268 6.646268
6.646268 0.000000 6.646268
3.323134 3.323134 0.000000
Sn
8
direct
0.375000 0.375000 0.750000 Sn
0.375000 0.875000 0.750000 Sn
0.875000 0.375000 0.750000 Sn
0.875000 0.875000 0.750000 Sn
0.250000 0.250000 0.500000 Sn
0.250000 0.750000 0.500000 Sn
0.750000 0.250000 0.500000 Sn
0.750000 0.750000 0.500000 Sn
