H4 F4                                   
   1.00000000000000     
     3.0136277862361611    0.0000000000000000    0.0000000000000000
     0.0000000000000000    4.4774917190526793    0.0000000000000000
     0.0000000000000000    0.0000000000000000    5.6962209914936253
   H    F 
     4     4
Direct
  0.5000000000000000  0.0738300906994009  0.4190750663957170
  0.5000000000000000  0.9261699093005989  0.9190750663957169
 -0.0000000000000000  0.5738300906994011  0.4190750663957170
 -0.0000000000000000  0.4261699093005990  0.9190750663957169
  0.5000000000000000  0.8603232954327797  0.4189249336042840
  0.5000000000000000  0.1396767045672203  0.9189249336042841
  0.0000000000000000  0.3603232954327796  0.4189249336042840
 -0.0000000000000000  0.6396767045672203  0.9189249336042841
 
  0.00000000E+00  0.00000000E+00  0.00000000E+00
  0.00000000E+00  0.00000000E+00  0.00000000E+00
  0.00000000E+00  0.00000000E+00  0.00000000E+00
  0.00000000E+00  0.00000000E+00  0.00000000E+00
  0.00000000E+00  0.00000000E+00  0.00000000E+00
  0.00000000E+00  0.00000000E+00  0.00000000E+00
  0.00000000E+00  0.00000000E+00  0.00000000E+00
  0.00000000E+00  0.00000000E+00  0.00000000E+00
