Li2 Mn6 P6 H4 O24
1.0
6.304146 6.040778 0.000000
-6.304146 6.040778 0.000000
0.000000 2.827029 6.058639
Li Mn P H O
2 6 6 4 24
direct
0.995313 0.004687 0.750000 Li
0.004687 0.995313 0.250000 Li
0.954958 0.633319 0.620243 Mn
0.633319 0.954958 0.120243 Mn
0.289805 0.710195 0.750000 Mn
0.710195 0.289805 0.250000 Mn
0.366681 0.045042 0.879757 Mn
0.045042 0.366681 0.379757 Mn
0.684350 0.902239 0.603648 P
0.902239 0.684350 0.103648 P
0.676449 0.323551 0.750000 P
0.323551 0.676449 0.250000 P
0.097761 0.315650 0.896352 P
0.315650 0.097761 0.396352 P
0.626602 0.627513 0.687286 H
0.627513 0.626602 0.187286 H
0.372487 0.373398 0.812714 H
0.373398 0.372487 0.312714 H
0.861582 0.868842 0.574383 O
0.615971 0.965169 0.798523 O
0.868842 0.861582 0.074383 O
0.965169 0.615971 0.298523 O
0.321510 0.976859 0.614812 O
0.571420 0.738206 0.646866 O
0.711879 0.503369 0.736771 O
0.709159 0.216844 0.960437 O
0.976859 0.321510 0.114812 O
0.738206 0.571420 0.146866 O
0.503369 0.711879 0.236771 O
0.783156 0.290841 0.539563 O
0.216844 0.709159 0.460437 O
0.496631 0.288121 0.763229 O
0.261794 0.428580 0.853134 O
0.023141 0.678490 0.885188 O
0.290841 0.783156 0.039563 O
0.288121 0.496631 0.263229 O
0.428580 0.261794 0.353134 O
0.678490 0.023141 0.385188 O
0.034831 0.384029 0.701477 O
0.131158 0.138418 0.925617 O
0.384029 0.034831 0.201477 O
0.138418 0.131158 0.425617 O
