Bi10 Te2 Br4 O17
1.0
-2.801868 2.801868 18.963189
2.801868 -2.801868 18.963189
2.801868 2.801868 -18.963189
Bi Te Br O
10 2 4 17
direct
0.252236 0.752236 0.500000 Bi
0.752236 0.252236 0.500000 Bi
0.568099 0.568099 0.000000 Bi
0.068190 0.068190 0.000000 Bi
0.683574 0.683574 0.000000 Bi
0.188078 0.188078 0.000000 Bi
0.998709 0.498709 0.500000 Bi
0.498709 0.998709 0.500000 Bi
0.931221 0.931221 0.000000 Bi
0.430870 0.430870 0.000000 Bi
0.824954 0.824954 0.000000 Te
0.312526 0.312526 0.000000 Te
0.132649 0.632649 0.500000 Br
0.632649 0.132649 0.500000 Br
0.380616 0.880616 0.500000 Br
0.880616 0.380616 0.500000 Br
0.790239 0.290196 0.000000 O
0.290196 0.790239 0.000000 O
0.957849 0.473191 0.000000 O
0.473191 0.957849 0.000000 O
0.570734 0.570734 0.540541 O
0.030193 0.030193 0.459459 O
0.473191 0.473191 0.515342 O
0.957849 0.957849 0.484658 O
0.710937 0.710937 0.499813 O
0.211124 0.211124 0.500187 O
0.290196 0.290196 0.499957 O
0.790239 0.790239 0.500043 O
0.030193 0.570734 0.000000 O
0.570734 0.030193 0.000000 O
0.263055 0.263055 0.000000 O
0.710937 0.211124 0.000000 O
0.211124 0.710937 0.000000 O
