Na4 Br4
1.0
0.000000 6.027596 6.027596
6.027596 0.000000 6.027596
3.013798 3.013798 0.000000
Na Br
4 4
direct
0.000000 0.000000 0.000000 Na
0.000000 0.500000 1.000000 Na
0.500000 0.000000 1.000000 Na
0.500000 0.500000 1.000000 Na
0.250000 0.250000 0.500000 Br
0.250000 0.750000 0.500000 Br
0.750000 0.250000 0.500000 Br
0.750000 0.750000 0.500000 Br
