Cs2 I1 Cl6 F1
1.0
0.000000 5.335791 5.335791
5.335791 0.000000 5.335791
5.335791 5.335791 0.000000
Cs I Cl F
2 1 6 1
direct
0.250000 0.250000 0.250000 Cs
0.750000 0.750000 0.750000 Cs
0.000000 0.000000 0.000000 I
0.240254 0.759746 0.759746 Cl
0.240254 0.759746 0.240254 Cl
0.759746 0.240254 0.759746 Cl
0.759746 0.759746 0.240254 Cl
0.240254 0.240254 0.759746 Cl
0.759746 0.240254 0.240254 Cl
0.500000 0.500000 0.500000 F
