B2 N2                                   
   1.00000000000000     
     2.5123230726124222   -0.0000000000000000   -0.0000000000000000
    -1.2561615363062111    2.1757361296324720    0.0000000000000000
    -0.0000000000000000   -0.0000000000000000    7.3393329861063332
   B    N 
     2     2
Direct
  0.6666669999999968  0.3333330000000032  0.7500000000000000
  0.3333330000000032  0.6666669999999968  0.2500000000000000
  0.6666669999999968  0.3333330000000032  0.2500000000000000
  0.3333330000000032  0.6666669999999968  0.7500000000000000
 
  0.00000000E+00  0.00000000E+00  0.00000000E+00
  0.00000000E+00  0.00000000E+00  0.00000000E+00
  0.00000000E+00  0.00000000E+00  0.00000000E+00
  0.00000000E+00  0.00000000E+00  0.00000000E+00
