Ta8 Ag4 O22
1.0
12.586471 -3.136627 0.000000
12.586471 3.136627 0.000000
11.804804 0.000000 5.376271
Ta Ag O
8 4 22
direct
0.886155 0.613845 0.250000 Ta
0.250000 0.886155 0.613845 Ta
0.613845 0.250000 0.886155 Ta
0.750000 0.113845 0.386155 Ta
0.386155 0.750000 0.113845 Ta
0.113845 0.386155 0.750000 Ta
0.500000 0.500000 0.500000 Ta
0.000000 0.000000 0.000000 Ta
0.171435 0.171435 0.171435 Ag
0.671435 0.671435 0.671435 Ag
0.828565 0.828565 0.828565 Ag
0.328565 0.328565 0.328565 Ag
0.244623 0.936474 0.725886 O
0.725886 0.244623 0.936474 O
0.936474 0.725886 0.244623 O
0.225886 0.436474 0.744623 O
0.744623 0.225886 0.436474 O
0.436474 0.744623 0.225886 O
0.755377 0.063526 0.274114 O
0.274114 0.755377 0.063526 O
0.063526 0.274114 0.755377 O
0.774114 0.563526 0.255377 O
0.255377 0.774114 0.563526 O
0.563526 0.255377 0.774114 O
0.499568 0.000432 0.250000 O
0.250000 0.499568 0.000432 O
0.000432 0.250000 0.499568 O
0.750000 0.500432 0.999568 O
0.999568 0.750000 0.500432 O
0.500432 0.999568 0.750000 O
0.093305 0.093305 0.093305 O
0.593305 0.593305 0.593305 O
0.906695 0.906695 0.906695 O
0.406695 0.406695 0.406695 O
