Be8 As4 H36 O36
1.0
12.733653 0.000000 0.000000
0.000000 7.254827 0.000000
0.000000 1.100501 8.566249
Be As H O
8 4 36 36
direct
0.377875 0.122637 0.638193 Be
0.877874 0.377363 0.361807 Be
0.622125 0.877363 0.361807 Be
0.122125 0.622637 0.638193 Be
0.373359 0.351559 0.892629 Be
0.873359 0.148441 0.107371 Be
0.626641 0.648441 0.107371 Be
0.126641 0.851559 0.892629 Be
0.327105 0.737376 0.758051 As
0.827105 0.762624 0.241949 As
0.672895 0.262624 0.241949 As
0.172895 0.237376 0.758051 As
0.487260 0.175539 0.414446 H
0.987260 0.324461 0.585554 H
0.512740 0.824461 0.585554 H
0.012740 0.675539 0.414446 H
0.390709 0.331343 0.416423 H
0.890709 0.168657 0.583577 H
0.609291 0.668657 0.583577 H
0.109291 0.831343 0.416423 H
0.477023 0.337081 0.112571 H
0.977023 0.162919 0.887429 H
0.522977 0.662919 0.887429 H
0.022977 0.837081 0.112571 H
0.396438 0.158013 0.117828 H
0.896438 0.341987 0.882172 H
0.603562 0.841987 0.882172 H
0.103562 0.658013 0.117828 H
0.316105 0.886402 0.071988 H
0.816105 0.613598 0.928012 H
0.683895 0.113598 0.928012 H
0.183895 0.386402 0.071988 H
0.294139 0.944664 0.239607 H
0.794139 0.555336 0.760393 H
0.705861 0.055336 0.760393 H
0.205861 0.444664 0.239607 H
0.353386 0.624527 0.282107 H
0.853386 0.875473 0.717893 H
0.646614 0.375473 0.717893 H
0.146614 0.124527 0.282107 H
0.297393 0.584715 0.445711 H
0.797393 0.915285 0.554289 H
0.702607 0.415285 0.554289 H
0.202607 0.084715 0.445711 H
0.499517 0.181321 0.800815 H
0.999517 0.318679 0.199185 H
0.500483 0.818679 0.199185 H
0.000483 0.681321 0.800815 H
0.245607 0.328367 0.897435 O
0.745607 0.171633 0.102565 O
0.754393 0.671633 0.102565 O
0.254393 0.828367 0.897435 O
0.410221 0.901537 0.663891 O
0.910221 0.598463 0.336109 O
0.589779 0.098463 0.336109 O
0.089779 0.401537 0.663891 O
0.410638 0.569574 0.846078 O
0.910638 0.930426 0.153922 O
0.589362 0.430426 0.153922 O
0.089362 0.069574 0.846078 O
0.251151 0.153459 0.621496 O
0.751151 0.346541 0.378504 O
0.748849 0.846541 0.378504 O
0.248849 0.653459 0.621496 O
0.427308 0.221234 0.778617 O
0.927308 0.278766 0.221383 O
0.572692 0.778766 0.221383 O
0.072692 0.721234 0.778617 O
0.419784 0.209293 0.464541 O
0.919784 0.290707 0.535459 O
0.580216 0.790707 0.535459 O
0.080216 0.709293 0.464541 O
0.406779 0.292204 0.078695 O
0.906779 0.207796 0.921305 O
0.593221 0.707796 0.921305 O
0.093221 0.792204 0.078695 O
0.351811 0.917478 0.168177 O
0.851811 0.582522 0.831823 O
0.648189 0.082522 0.831823 O
0.148189 0.417478 0.168177 O
0.318917 0.525684 0.352285 O
0.818917 0.974316 0.647715 O
0.681083 0.474316 0.647715 O
0.181083 0.025684 0.352285 O
