H8 C2                                   
   1.00000000000000     
     4.8858353320812933    0.0000000000000000   -0.0000000000000000
    -0.0000000000000000    4.8858353320812933   -0.0000000000000000
     0.0000000000000000   -0.0000000000000000    4.8858353320812933
   H    C 
     8     2
Direct
  0.3704573206775130  0.3704573206775130  0.6295426793224871
  0.6295426793224871  0.3704573206775130  0.3704573206775130
  0.3704573206775130  0.6295426793224871  0.3704573206775130
  0.1295426793224870  0.1295426793224870  0.1295426793224870
  0.8704573206775129  0.8704573206775129  0.1295426793224870
  0.1295426793224870  0.8704573206775129  0.8704573206775129
  0.8704573206775129  0.1295426793224870  0.8704573206775129
  0.6295426793224871  0.6295426793224871  0.6295426793224871
 -0.0000000000000000 -0.0000000000000000 -0.0000000000000000
  0.5000000000000000  0.5000000000000000  0.5000000000000000
 
  0.00000000E+00  0.00000000E+00  0.00000000E+00
  0.00000000E+00  0.00000000E+00  0.00000000E+00
  0.00000000E+00  0.00000000E+00  0.00000000E+00
  0.00000000E+00  0.00000000E+00  0.00000000E+00
  0.00000000E+00  0.00000000E+00  0.00000000E+00
  0.00000000E+00  0.00000000E+00  0.00000000E+00
  0.00000000E+00  0.00000000E+00  0.00000000E+00
  0.00000000E+00  0.00000000E+00  0.00000000E+00
  0.00000000E+00  0.00000000E+00  0.00000000E+00
  0.00000000E+00  0.00000000E+00  0.00000000E+00
