Sn4 S4                                  
   1.00000000000000     
     4.0239719999999997    0.0000000000000000    0.0000000000000000
     0.0000000000000000    4.4425109999999997    0.0000000000000000
     0.0000000000000000    0.0000000000000000   11.4326519999999991
   Sn   S 
     4     4
Direct
  0.2500000000000000  0.3739759999999990  0.6212379999999982
  0.7500000000000000  0.6260240000000010  0.3787620000000018
  0.7500000000000000  0.8739759999999990  0.8787620000000018
  0.2500000000000000  0.1260240000000010  0.1212379999999982
  0.2500000000000000  0.0198669999999979  0.3498299999999972
  0.7500000000000000  0.9801330000000021  0.6501700000000028
  0.7500000000000000  0.5198669999999979  0.1501700000000028
  0.2500000000000000  0.4801330000000021  0.8498299999999972
 
  0.00000000E+00  0.00000000E+00  0.00000000E+00
  0.00000000E+00  0.00000000E+00  0.00000000E+00
  0.00000000E+00  0.00000000E+00  0.00000000E+00
  0.00000000E+00  0.00000000E+00  0.00000000E+00
  0.00000000E+00  0.00000000E+00  0.00000000E+00
  0.00000000E+00  0.00000000E+00  0.00000000E+00
  0.00000000E+00  0.00000000E+00  0.00000000E+00
  0.00000000E+00  0.00000000E+00  0.00000000E+00
