Na4 F4
1.0
0.000000 4.696246 4.696246
4.696246 0.000000 4.696246
2.348123 2.348123 0.000000
Na F
4 4
direct
0.000000 0.000000 0.000000 Na
1.000000 0.500000 0.000000 Na
0.500000 1.000000 0.000000 Na
0.500000 0.500000 0.000000 Na
0.250000 0.250000 0.500000 F
0.250000 0.750000 0.500000 F
0.750000 0.250000 0.500000 F
0.750000 0.750000 0.500000 F
