Ti8 H24 C8 O40
1.0
5.475782 -7.987070 0.000000
5.475782 7.987070 0.000000
0.000000 0.000000 9.457157
Ti H C O
8 24 8 40
direct
0.672008 0.040416 0.099333 Ti
0.959584 0.327992 0.900667 Ti
0.459584 0.827992 0.599333 Ti
0.172008 0.540416 0.400667 Ti
0.327992 0.959584 0.900667 Ti
0.040416 0.672008 0.099333 Ti
0.540416 0.172008 0.400667 Ti
0.827992 0.459584 0.599333 Ti
0.571625 0.790089 0.285783 H
0.209911 0.428375 0.714217 H
0.709911 0.928375 0.785783 H
0.071625 0.290089 0.214217 H
0.428375 0.209911 0.714217 H
0.790089 0.571625 0.285783 H
0.290089 0.071625 0.214217 H
0.928375 0.709911 0.785783 H
0.483585 0.750677 0.133677 H
0.249323 0.516415 0.866323 H
0.749323 0.016415 0.633677 H
0.983585 0.250677 0.366323 H
0.516415 0.249323 0.866323 H
0.750677 0.483585 0.133677 H
0.250677 0.983585 0.366323 H
0.016415 0.749323 0.633677 H
0.886802 0.030186 0.428937 H
0.969814 0.113198 0.571063 H
0.469814 0.613198 0.928937 H
0.386802 0.530186 0.071063 H
0.113198 0.969814 0.571063 H
0.030186 0.886802 0.428937 H
0.530186 0.386802 0.071063 H
0.613198 0.469814 0.928937 H
0.895320 0.895320 0.162878 C
0.104680 0.104680 0.837122 C
0.604680 0.604680 0.662878 C
0.395320 0.395320 0.337122 C
0.836657 0.836657 0.014665 C
0.163343 0.163343 0.985335 C
0.663343 0.663343 0.514665 C
0.336657 0.336657 0.485335 C
0.847386 0.988616 0.217935 O
0.011384 0.152614 0.782065 O
0.511384 0.652614 0.717935 O
0.347386 0.488616 0.282065 O
0.152614 0.011384 0.782065 O
0.988616 0.847386 0.217935 O
0.488616 0.347386 0.282065 O
0.652614 0.511384 0.717935 O
0.744921 0.887089 0.960314 O
0.112911 0.255079 0.039686 O
0.612911 0.755079 0.460314 O
0.244921 0.387089 0.539686 O
0.255079 0.112911 0.039686 O
0.887089 0.744921 0.960314 O
0.387089 0.244921 0.539686 O
0.755079 0.612911 0.460314 O
0.644043 0.144043 0.250000 O
0.855957 0.355957 0.750000 O
0.355957 0.855957 0.750000 O
0.144043 0.644043 0.250000 O
0.500000 0.000000 0.000000 O
0.000000 0.500000 0.000000 O
0.500000 0.000000 0.500000 O
0.000000 0.500000 0.500000 O
0.812005 0.187995 0.000000 O
0.312005 0.687995 0.500000 O
0.187995 0.812005 0.000000 O
0.687995 0.312005 0.500000 O
0.554162 0.828238 0.193513 O
0.171762 0.445838 0.806487 O
0.671762 0.945838 0.693513 O
0.054162 0.328238 0.306487 O
0.445838 0.171762 0.806487 O
0.828238 0.554162 0.193513 O
0.328238 0.054162 0.306487 O
0.945838 0.671762 0.693513 O
0.893681 0.106319 0.500000 O
0.393681 0.606319 0.000000 O
0.106319 0.893681 0.500000 O
0.606319 0.393681 0.000000 O
