S9                                      
   1.00000000000000     
     8.4408680000000000    0.0000000000000000    0.0000000000000000
    -4.2204340000000000    7.3100059999999996    0.0000000000000000
     0.0000000000000000    0.0000000000000000    4.4033780000000000
   S 
     9
Direct
  0.1001100000000008  0.1001100000000008  0.5000000000000000
  0.4422520000000034  0.6888209999999972  0.7259949999999975
  0.6888209999999972  0.4422520000000034  0.2740050000000025
  0.8998899999999992  0.0000000000000000  0.1666669999999968
  0.2465690000000009  0.5577479999999966  0.0593280000000007
  0.3111790000000028  0.7534309999999991  0.3926620000000014
  0.5577479999999966  0.2465690000000009  0.9406719999999993
  0.7534309999999991  0.3111790000000028  0.6073379999999986
  0.0000000000000000  0.8998899999999992  0.8333330000000032
 
  0.00000000E+00  0.00000000E+00  0.00000000E+00
  0.00000000E+00  0.00000000E+00  0.00000000E+00
  0.00000000E+00  0.00000000E+00  0.00000000E+00
  0.00000000E+00  0.00000000E+00  0.00000000E+00
  0.00000000E+00  0.00000000E+00  0.00000000E+00
  0.00000000E+00  0.00000000E+00  0.00000000E+00
  0.00000000E+00  0.00000000E+00  0.00000000E+00
  0.00000000E+00  0.00000000E+00  0.00000000E+00
  0.00000000E+00  0.00000000E+00  0.00000000E+00
