V6 Pb10 O24 F2
1.0
5.189930 -8.989223 0.000000
5.189930 8.989223 0.000000
0.000000 0.000000 7.317026
V Pb O F
6 10 24 2
direct
0.025957 0.616243 0.750000 V
0.383757 0.409714 0.750000 V
0.590286 0.974043 0.750000 V
0.974043 0.383757 0.250000 V
0.616243 0.590286 0.250000 V
0.409714 0.025957 0.250000 V
0.666667 0.333333 0.507110 Pb
0.333333 0.666667 0.007110 Pb
0.333333 0.666667 0.492890 Pb
0.666667 0.333333 0.992890 Pb
0.224823 0.981366 0.750000 Pb
0.018634 0.243457 0.750000 Pb
0.756543 0.775177 0.750000 Pb
0.775177 0.018634 0.250000 Pb
0.981366 0.756543 0.250000 Pb
0.243457 0.224823 0.250000 Pb
0.833127 0.502855 0.750000 O
0.497145 0.330272 0.750000 O
0.669728 0.166873 0.750000 O
0.166873 0.497145 0.250000 O
0.502855 0.669728 0.250000 O
0.330272 0.833127 0.250000 O
0.115891 0.510340 0.750000 O
0.489660 0.605551 0.750000 O
0.394449 0.884109 0.750000 O
0.884109 0.489660 0.250000 O
0.510340 0.394449 0.250000 O
0.605551 0.115891 0.250000 O
0.089496 0.734904 0.561456 O
0.265096 0.354591 0.561456 O
0.645409 0.910504 0.561456 O
0.910504 0.265096 0.061456 O
0.734904 0.645409 0.061456 O
0.354591 0.089496 0.061456 O
0.910504 0.265096 0.438544 O
0.734904 0.645409 0.438544 O
0.354591 0.089496 0.438544 O
0.089496 0.734904 0.938544 O
0.265096 0.354591 0.938544 O
0.645409 0.910504 0.938544 O
0.000000 0.000000 0.500000 F
0.000000 0.000000 0.000000 F
