Hg12 Te8 I4 Br4
1.0
4.947387 9.509662 0.000000
-4.947387 9.509662 0.000000
0.000000 0.004271 10.807824
Hg Te I Br
12 8 4 4
direct
0.585465 0.163553 0.206945 Hg
0.702380 0.297620 0.500000 Hg
0.983323 0.525718 0.501142 Hg
0.971854 0.987669 0.776721 Hg
0.012331 0.028146 0.223279 Hg
0.241465 0.758535 0.500000 Hg
0.407174 0.841214 0.802124 Hg
0.836447 0.414535 0.793055 Hg
0.725288 0.732783 0.208615 Hg
0.474282 0.016677 0.498858 Hg
0.158786 0.592826 0.197876 Hg
0.267217 0.274712 0.791385 Hg
0.002381 0.465513 0.252474 Te
0.454732 0.009008 0.245834 Te
0.699509 0.266386 0.752044 Te
0.990992 0.545268 0.754166 Te
0.534487 0.997619 0.747526 Te
0.249700 0.714451 0.750554 Te
0.733614 0.300491 0.247956 Te
0.285549 0.750300 0.249446 Te
0.869727 0.883501 0.025264 I
0.119375 0.124470 0.523073 I
0.875530 0.880625 0.476927 I
0.116499 0.130273 0.974736 I
0.369128 0.380675 0.009174 Br
0.630082 0.626641 0.522352 Br
0.373359 0.369918 0.477648 Br
0.619325 0.630872 0.990826 Br
