Ge4 Xe4 F40
1.0
7.252479 0.000000 0.000000
0.000000 7.547441 0.000000
0.000000 0.000000 13.427776
Ge Xe F
4 4 40
direct
0.500000 0.500000 0.500000 Ge
0.000000 0.000000 0.000000 Ge
0.500000 0.000000 0.000000 Ge
0.000000 0.500000 0.500000 Ge
0.750000 0.854416 0.635545 Xe
0.250000 0.145584 0.364455 Xe
0.250000 0.354416 0.864455 Xe
0.750000 0.645584 0.135545 Xe
0.436597 0.275323 0.526466 F
0.250000 0.923084 0.029172 F
0.018333 0.895895 0.651819 F
0.750000 0.424961 0.214027 F
0.936597 0.775323 0.973534 F
0.481667 0.604105 0.151819 F
0.750000 0.750309 0.770724 F
0.436597 0.224677 0.026466 F
0.250000 0.530026 0.973647 F
0.563403 0.724677 0.473534 F
0.750000 0.423084 0.470828 F
0.936145 0.542423 0.627440 F
0.250000 0.575039 0.785973 F
0.981667 0.395895 0.848181 F
0.250000 0.924961 0.285973 F
0.436145 0.457577 0.372560 F
0.250000 0.969974 0.473647 F
0.250000 0.250309 0.729276 F
0.750000 0.075039 0.714027 F
0.563855 0.542423 0.627440 F
0.063403 0.224677 0.026466 F
0.981667 0.104105 0.348181 F
0.750000 0.749691 0.270724 F
0.063855 0.457577 0.372560 F
0.018333 0.604105 0.151819 F
0.563403 0.775323 0.973534 F
0.518333 0.104105 0.348181 F
0.063403 0.275323 0.526466 F
0.436145 0.042423 0.872560 F
0.936597 0.724677 0.473534 F
0.481667 0.895895 0.651819 F
0.750000 0.469974 0.026353 F
0.250000 0.576916 0.529172 F
0.936145 0.957577 0.127440 F
0.518333 0.395895 0.848181 F
0.563855 0.957577 0.127440 F
0.750000 0.076916 0.970828 F
0.750000 0.030026 0.526353 F
0.063855 0.042423 0.872560 F
0.250000 0.249691 0.229276 F
