Mg30 Mn1 Si1 O32
1.0
8.541545 0.000000 0.000000
0.000000 8.541545 0.000000
0.000000 0.000000 8.567330
Mg Mn Si O
30 1 1 32
direct
0.000000 0.500000 0.000000 Mg
0.000000 0.500000 0.500000 Mg
0.500000 0.000000 0.000000 Mg
0.500000 0.000000 0.500000 Mg
0.500000 0.500000 0.000000 Mg
0.500000 0.500000 0.500000 Mg
0.000000 0.251693 0.250132 Mg
0.000000 0.251693 0.749868 Mg
0.000000 0.748307 0.250132 Mg
0.000000 0.748307 0.749868 Mg
0.500000 0.250248 0.249785 Mg
0.500000 0.250248 0.750215 Mg
0.500000 0.749752 0.249785 Mg
0.500000 0.749752 0.750215 Mg
0.251693 0.000000 0.250132 Mg
0.251693 0.000000 0.749868 Mg
0.250248 0.500000 0.249785 Mg
0.250248 0.500000 0.750215 Mg
0.748307 0.000000 0.250132 Mg
0.748307 0.000000 0.749868 Mg
0.749752 0.500000 0.249785 Mg
0.749752 0.500000 0.750215 Mg
0.249423 0.249423 0.000000 Mg
0.251457 0.251457 0.500000 Mg
0.249423 0.750577 0.000000 Mg
0.251457 0.748543 0.500000 Mg
0.750577 0.249423 0.000000 Mg
0.748543 0.251457 0.500000 Mg
0.750577 0.750577 0.000000 Mg
0.748543 0.748543 0.500000 Mg
0.000000 0.000000 0.000000 Mn
0.000000 0.000000 0.500000 Si
0.251572 0.000000 0.000000 O
0.261769 0.000000 0.500000 O
0.250266 0.500000 0.000000 O
0.251708 0.500000 0.500000 O
0.748428 0.000000 0.000000 O
0.738231 0.000000 0.500000 O
0.749734 0.500000 0.000000 O
0.748292 0.500000 0.500000 O
0.249487 0.249487 0.250274 O
0.249487 0.249487 0.749726 O
0.249487 0.750513 0.250274 O
0.249487 0.750513 0.749726 O
0.750513 0.249487 0.250274 O
0.750513 0.249487 0.749726 O
0.750513 0.750513 0.250274 O
0.750513 0.750513 0.749726 O
0.000000 0.000000 0.251589 O
0.000000 0.000000 0.748411 O
0.000000 0.500000 0.247895 O
0.000000 0.500000 0.752105 O
0.500000 0.000000 0.247895 O
0.500000 0.000000 0.752105 O
0.500000 0.500000 0.249456 O
0.500000 0.500000 0.750544 O
0.000000 0.251572 0.000000 O
0.000000 0.261769 0.500000 O
0.000000 0.748428 0.000000 O
0.000000 0.738231 0.500000 O
0.500000 0.250266 0.000000 O
0.500000 0.251708 0.500000 O
0.500000 0.749734 0.000000 O
0.500000 0.748292 0.500000 O
