K4 Cl4
1.0
0.000000 6.383592 6.383592
6.383592 0.000000 6.383592
3.191796 3.191796 0.000000
K Cl
4 4
direct
0.000000 0.000000 0.000000 K
0.000000 0.500000 1.000000 K
0.500000 0.000000 1.000000 K
0.500000 0.500000 1.000000 K
0.250000 0.250000 0.500000 Cl
0.250000 0.750000 0.500000 Cl
0.750000 0.250000 0.500000 Cl
0.750000 0.750000 0.500000 Cl
