Fe3 Cl6                                 
   1.00000000000000     
     3.5876752133061549   -0.0000000000000000   -0.0000000000000000
    -1.7938376066530775    3.1070180618009311    0.0000000000000001
    -0.0000000000000001    0.0000000000000002   20.3327262780572724
   Fe   Cl   Br
     3     4     2
Direct
  0.0000000000000000 -0.0000000000000000  0.0004646018470276
  0.6666669999999968  0.3333330000000032  0.3328683981529756
  0.3333330000000032  0.6666669999999968  0.6666669999999968
  0.3333330000000032  0.6666669999999968  0.9328663963587807
  0.6666669999999968  0.3333330000000032  0.0677577439268832
  0.0000000000000000 -0.0000000000000000  0.2655752560731128
  0.3333330000000032  0.6666669999999968  0.4004676036412203
  0.6666669999999968  0.3333330000000032  0.5902315873563434
 -0.0000000000000000  0.0000000000000000  0.7431014126436598
 
  0.00000000E+00  0.00000000E+00  0.00000000E+00
  0.00000000E+00  0.00000000E+00  0.00000000E+00
  0.00000000E+00  0.00000000E+00  0.00000000E+00
  0.00000000E+00  0.00000000E+00  0.00000000E+00
  0.00000000E+00  0.00000000E+00  0.00000000E+00
  0.00000000E+00  0.00000000E+00  0.00000000E+00
  0.00000000E+00  0.00000000E+00  0.00000000E+00
  0.00000000E+00  0.00000000E+00  0.00000000E+00
  0.00000000E+00  0.00000000E+00  0.00000000E+00
