As6
1.0
1.913943 -3.315046 0.000000
1.913943 3.315046 0.000000
0.000000 0.000000 10.616747
As
6
direct
0.000000 0.000000 0.227320 As
0.666667 0.333333 0.106013 As
0.666667 0.333333 0.560653 As
0.333333 0.666667 0.439347 As
0.333333 0.666667 0.893987 As
0.000000 0.000000 0.772680 As

