Zn4 Cu4
1.0
5.921144 0.000000 0.000000
0.000000 5.921144 0.000000
0.000000 0.000000 2.960572
Zn Cu
4 4
direct
0.250000 0.250000 0.500000 Zn
0.250000 0.750000 0.500000 Zn
0.750000 0.250000 0.500000 Zn
0.750000 0.750000 0.500000 Zn
0.000000 0.000000 0.000000 Cu
0.000000 0.500000 0.000000 Cu
0.500000 0.000000 0.000000 Cu
0.500000 0.500000 0.000000 Cu
