Mn2 Al4 P4 H36 O36
1.0
7.073456 0.000000 0.000000
-3.507780 9.636581 0.000000
-0.027534 -3.478597 10.020629
Mn Al P H O
2 4 4 36 36
direct
0.630262 0.269528 0.510457 Mn
0.369738 0.730472 0.489543 Mn
0.000000 0.000000 0.000000 Al
0.500000 0.500000 0.000000 Al
0.259118 0.748356 0.996265 Al
0.740882 0.251644 0.003735 Al
0.433269 0.092245 0.181456 P
0.865420 0.461093 0.827702 P
0.134580 0.538907 0.172298 P
0.566731 0.907755 0.818544 P
0.295396 0.035791 0.855146 H
0.104189 0.056315 0.784060 H
0.365088 0.049637 0.608528 H
0.812982 0.010158 0.664907 H
0.557701 0.149237 0.716296 H
0.347805 0.348299 0.744252 H
0.926559 0.178452 0.742021 H
0.222902 0.445493 0.828683 H
0.899161 0.126575 0.532983 H
0.172392 0.230903 0.260080 H
0.292179 0.329901 0.475895 H
0.080317 0.258722 0.022044 H
0.146383 0.385099 0.329920 H
0.938296 0.183345 0.404997 H
0.088117 0.530247 0.614029 H
0.402006 0.466660 0.600329 H
0.418260 0.272938 0.044258 H
0.270453 0.666545 0.707705 H
0.729547 0.333455 0.292295 H
0.581740 0.727062 0.955742 H
0.597994 0.533340 0.399671 H
0.911883 0.469753 0.385971 H
0.061704 0.816655 0.595003 H
0.853617 0.614901 0.670080 H
0.919683 0.741278 0.977956 H
0.707821 0.670099 0.524105 H
0.827608 0.769097 0.739920 H
0.100839 0.873425 0.467017 H
0.777098 0.554507 0.171317 H
0.073441 0.821548 0.257979 H
0.652195 0.651701 0.255748 H
0.442299 0.850763 0.283704 H
0.187018 0.989842 0.335093 H
0.634912 0.950363 0.391472 H
0.895811 0.943685 0.215940 H
0.704604 0.964209 0.144854 H
0.147636 0.015494 0.848191 O
0.566265 0.065901 0.883095 O
0.477785 0.146033 0.639081 O
0.945644 0.092633 0.675596 O
0.423219 0.124222 0.332323 O
0.308251 0.386609 0.833377 O
0.249650 0.114001 0.118936 O
0.139430 0.291642 0.343434 O
0.830920 0.135638 0.454626 O
0.825288 0.310063 0.847681 O
0.091414 0.560099 0.876206 O
0.387725 0.363690 0.560287 O
0.634561 0.200838 0.158087 O
0.728423 0.539402 0.905190 O
0.471766 0.673636 0.996979 O
0.832813 0.439478 0.676505 O
0.228828 0.593301 0.613632 O
0.047722 0.825001 0.992712 O
0.952278 0.174999 0.007288 O
0.771172 0.406699 0.386368 O
0.167187 0.560522 0.323495 O
0.528234 0.326364 0.003021 O
0.271577 0.460598 0.094810 O
0.365439 0.799162 0.841913 O
0.612275 0.636310 0.439713 O
0.908586 0.439901 0.123794 O
0.174712 0.689937 0.152319 O
0.169080 0.864362 0.545374 O
0.860570 0.708358 0.656566 O
0.750350 0.885999 0.881064 O
0.691749 0.613391 0.166623 O
0.576781 0.875778 0.667677 O
0.054356 0.907367 0.324404 O
0.522215 0.853967 0.360919 O
0.433735 0.934099 0.116905 O
0.852364 0.984506 0.151809 O
