Zn8
1.0
2.626730 -4.549632 0.000000
2.626730 4.549632 0.000000
0.000000 0.000000 5.207234
Zn
8
direct
0.166667 0.333333 0.250000 Zn
0.166667 0.833333 0.250000 Zn
0.666667 0.333333 0.250000 Zn
0.666667 0.833333 0.250000 Zn
0.333334 0.166666 0.750000 Zn
0.333334 0.666666 0.750000 Zn
0.833334 0.166666 0.750000 Zn
0.833334 0.666666 0.750000 Zn
