Ni8
1.0
0.000000 7.011596 7.011596
3.505798 0.000000 3.505798
1.752899 1.752899 0.000000
Ni
8
direct
0.000000 0.000000 0.000000 Ni
1.000000 0.500000 0.000000 Ni
0.500000 1.000000 0.000000 Ni
0.500000 0.500000 0.000000 Ni
0.250000 0.500000 0.000000 Ni
0.250000 1.000000 0.000000 Ni
0.750000 0.500000 1.000000 Ni
0.750000 0.000000 0.000000 Ni
