Cd4 H20 Br12 N8
1.0
18.133090 0.000000 0.000000
0.000000 3.965573 0.000000
0.000000 0.376761 10.104567
Cd H Br N
4 20 12 8
direct
0.569042 0.715252 0.148917 Cd
0.069042 0.284748 0.351083 Cd
0.430958 0.284748 0.851083 Cd
0.930958 0.715252 0.648917 Cd
0.586740 0.379724 0.539972 H
0.086740 0.620276 0.960028 H
0.413260 0.620276 0.460028 H
0.913260 0.379724 0.039972 H
0.637318 0.404618 0.676131 H
0.137318 0.595382 0.823869 H
0.362682 0.595382 0.323869 H
0.862682 0.404618 0.176131 H
0.736601 0.184366 0.576321 H
0.236601 0.815634 0.923679 H
0.263399 0.815634 0.423679 H
0.763399 0.184366 0.076321 H
0.693884 0.201128 0.427393 H
0.193884 0.798872 0.072607 H
0.306116 0.798872 0.572607 H
0.806116 0.201128 0.927393 H
0.666164 0.916783 0.546644 H
0.166164 0.083217 0.953356 H
0.333836 0.083217 0.453356 H
0.833836 0.916783 0.046644 H
0.709067 0.687698 0.247015 Br
0.209067 0.312302 0.252985 Br
0.290933 0.312302 0.752985 Br
0.790933 0.687698 0.747015 Br
0.517347 0.191207 0.318663 Br
0.017347 0.808793 0.181337 Br
0.482653 0.808793 0.681337 Br
0.982653 0.191207 0.818663 Br
0.408072 0.752742 0.042464 Br
0.908072 0.247258 0.457536 Br
0.591928 0.247258 0.957536 Br
0.091928 0.752742 0.542464 Br
0.638650 0.430804 0.574425 N
0.138650 0.569196 0.925575 N
0.361350 0.569196 0.425575 N
0.861350 0.430804 0.074425 N
0.686078 0.165209 0.528721 N
0.186078 0.834791 0.971279 N
0.313922 0.834791 0.471279 N
0.813922 0.165209 0.028721 N
