Mo2 S4                                  
   1.00000000000000     
     3.2489945315147128   -0.0000000000000000    0.0000000000000000
    -1.6244972657573566    2.8137110605193039    0.0000000000000000
     0.0000000000000000    0.0000000000000000   15.1078925664508876
   Mo   S    Se
     2     2     2
Direct
  0.3333330000000032  0.6666669999999968  0.2500000000000000
  0.6666669999999968  0.3333330000000032  0.7500000000000000
  0.6666669999999968  0.3333330000000032  0.3518898496345206
  0.6666669999999968  0.3333330000000032  0.1481101503654794
  0.3333330000000032  0.6666669999999968  0.8621757444371910
  0.3333330000000032  0.6666669999999968  0.6378242555628090
 
  0.00000000E+00  0.00000000E+00  0.00000000E+00
  0.00000000E+00  0.00000000E+00  0.00000000E+00
  0.00000000E+00  0.00000000E+00  0.00000000E+00
  0.00000000E+00  0.00000000E+00  0.00000000E+00
  0.00000000E+00  0.00000000E+00  0.00000000E+00
  0.00000000E+00  0.00000000E+00  0.00000000E+00
