Rb2 Br1 Cl6 F1
1.0
0.000000 5.125468 5.125468
5.125468 0.000000 5.125468
5.125468 5.125468 0.000000
Rb Br Cl F
2 1 6 1
direct
0.250000 0.250000 0.250000 Rb
0.750000 0.750000 0.750000 Rb
0.500000 0.500000 0.500000 Br
0.258680 0.741320 0.741320 Cl
0.258680 0.741320 0.258680 Cl
0.741320 0.258680 0.741320 Cl
0.741320 0.741320 0.258680 Cl
0.258680 0.258680 0.741320 Cl
0.741320 0.258680 0.258680 Cl
0.000000 0.000000 0.000000 F
