Ga4 N4
1.0
3.216290 -5.570778 0.000000
1.608145 2.785389 0.000000
0.000000 0.000000 5.239962
Ga N
4 4
direct
0.333334 0.333333 0.499120 Ga
0.833333 0.333333 0.499120 Ga
0.166666 0.666667 0.999120 Ga
0.666666 0.666667 0.999120 Ga
0.333334 0.333333 0.875880 N
0.833333 0.333333 0.875880 N
0.166666 0.666667 0.375880 N
0.666666 0.666667 0.375880 N
