Sb6
1.0
2.192977 -3.798347 0.000000
2.192977 3.798347 0.000000
0.000000 0.000000 11.573084
Sb
6
direct
0.666667 0.333333 0.065163 Sb
0.000000 0.000000 0.268170 Sb
0.333333 0.666667 0.398497 Sb
0.666667 0.333333 0.601503 Sb
0.000000 0.000000 0.731830 Sb
0.333333 0.666667 0.934837 Sb

