Ti3 Ni1 Sn2 P6 O24
1.0
7.934517 -4.308982 0.000000
7.934517 4.308982 0.000000
5.594447 0.000000 7.087034
Ti Ni Sn P O
3 1 2 6 24
direct
0.855598 0.855598 0.855598 Ti
0.647964 0.647964 0.647964 Ti
0.348025 0.348025 0.348025 Ti
0.150279 0.150279 0.150279 Ni
0.014100 0.014100 0.014100 Sn
0.496576 0.496576 0.496576 Sn
0.535418 0.958005 0.249836 P
0.249836 0.535418 0.958005 P
0.038061 0.747097 0.465994 P
0.747097 0.465994 0.038061 P
0.465994 0.038061 0.747097 P
0.958005 0.249836 0.535418 P
0.503749 0.875161 0.703479 O
0.875161 0.703479 0.503749 O
0.717611 0.936731 0.073760 O
0.703479 0.503749 0.875161 O
0.370647 0.973906 0.232647 O
0.577535 0.778134 0.421868 O
0.073760 0.717611 0.936731 O
0.421868 0.577535 0.778134 O
0.006008 0.783469 0.630696 O
0.778134 0.421868 0.577535 O
0.057745 0.919002 0.281499 O
0.783469 0.630696 0.006008 O
0.232647 0.370647 0.973906 O
0.936731 0.073760 0.717611 O
0.222318 0.571069 0.441972 O
0.973906 0.232647 0.370647 O
0.571069 0.441972 0.222318 O
0.919002 0.281499 0.057745 O
0.441972 0.222318 0.571069 O
0.630696 0.006008 0.783469 O
0.279730 0.502944 0.131364 O
0.281499 0.057745 0.919002 O
0.131364 0.279730 0.502944 O
0.502944 0.131364 0.279730 O
