Na4 Cl4
1.0
0.000000 5.691694 5.691694
5.691694 0.000000 5.691694
2.845847 2.845847 0.000000
Na Cl
4 4
direct
0.000000 0.000000 0.000000 Na
0.000000 0.500000 1.000000 Na
0.500000 0.000000 1.000000 Na
0.500000 0.500000 1.000000 Na
0.250000 0.250000 0.500000 Cl
0.250000 0.750000 0.500000 Cl
0.750000 0.250000 0.500000 Cl
0.750000 0.750000 0.500000 Cl
