K2 Mg2 V10 H32 O44
1.0
8.615645 -0.191050 2.517800
2.085187 9.676828 4.408244
0.082197 -0.063013 11.217402
K Mg V H O
2 2 10 32 44
direct
0.663224 0.105249 0.202916 K
0.336776 0.894751 0.797084 K
0.218915 0.269272 0.211622 Mg
0.781085 0.730728 0.788378 Mg
0.329440 0.488316 0.484044 V
0.670560 0.511684 0.515956 V
0.607723 0.221214 0.548122 V
0.392277 0.778786 0.451878 V
0.651529 0.450194 0.268769 V
0.348471 0.549806 0.731231 V
0.298238 0.258487 0.761667 V
0.701762 0.741513 0.238333 V
0.375364 0.716107 0.202671 V
0.624636 0.283893 0.797329 V
0.137577 0.492036 0.302618 H
0.862423 0.507964 0.697382 H
0.986153 0.475523 0.268808 H
0.013847 0.524477 0.731192 H
0.329721 0.019741 0.183307 H
0.670279 0.980259 0.816693 H
0.387777 0.130223 0.041601 H
0.612223 0.869777 0.958399 H
0.076284 0.834753 0.372444 H
0.923716 0.165247 0.627556 H
0.929650 0.762176 0.428083 H
0.070350 0.237824 0.571917 H
0.044161 0.110980 0.037162 H
0.955839 0.889020 0.962838 H
0.015461 0.970670 0.144865 H
0.984539 0.029330 0.855135 H
0.120258 0.381860 0.967684 H
0.879742 0.618140 0.032316 H
0.971482 0.343213 0.087407 H
0.028518 0.656787 0.912593 H
0.392232 0.242769 0.391740 H
0.607768 0.757231 0.608260 H
0.325361 0.103082 0.439021 H
0.674639 0.896918 0.560979 H
0.421529 0.447172 0.125023 H
0.578471 0.552828 0.874977 H
0.429528 0.405470 0.001087 H
0.570472 0.594530 0.998913 H
0.987719 0.114005 0.319452 H
0.012281 0.885995 0.680548 H
0.035112 0.143659 0.433740 H
0.964888 0.856341 0.566260 H
0.694900 0.104572 0.479058 O
0.305100 0.895428 0.520942 O
0.707825 0.175813 0.688286 O
0.292175 0.824187 0.311714 O
0.479159 0.352558 0.409472 O
0.520841 0.647442 0.590528 O
0.244958 0.581169 0.342859 O
0.755042 0.418831 0.657141 O
0.207170 0.375476 0.594895 O
0.792830 0.624524 0.405105 O
0.480370 0.404631 0.619186 O
0.519630 0.595369 0.380814 O
0.747545 0.335681 0.198294 O
0.252455 0.664319 0.801706 O
0.783708 0.576082 0.196789 O
0.216292 0.423918 0.803211 O
0.502157 0.554759 0.163751 O
0.497843 0.445241 0.836249 O
0.428950 0.156848 0.656848 O
0.571050 0.843152 0.343152 O
0.555000 0.797160 0.130389 O
0.445000 0.202840 0.869611 O
0.163015 0.165124 0.854262 O
0.836985 0.834876 0.145738 O
0.265644 0.627544 0.561411 O
0.734356 0.372456 0.438589 O
0.272493 0.790055 0.085603 O
0.727507 0.209945 0.914397 O
0.093561 0.429424 0.283690 O
0.906439 0.570576 0.716310 O
0.360658 0.110168 0.139193 O
0.639342 0.889832 0.860807 O
0.962606 0.846470 0.414332 O
0.037394 0.153530 0.585668 O
0.988384 0.068963 0.128578 O
0.011616 0.931037 0.871422 O
0.083954 0.348168 0.065877 O
0.916046 0.651832 0.934123 O
0.354687 0.183205 0.362184 O
0.645313 0.816795 0.637816 O
0.397639 0.378032 0.099743 O
0.602361 0.621968 0.900257 O
0.066663 0.143345 0.340987 O
0.933337 0.856655 0.659013 O
