Hg4 O4                                  
   1.00000000000000     
     3.7376340496962430    0.0000000000000000    0.0000000000000000
     0.0000000000000000    5.7959250588492512    0.0000000000000000
     0.0000000000000000    0.0000000000000000    6.7396147621746385
   Hg   O 
     4     4
Direct
  0.7429226800883226  0.7500000000000000  0.3846921607313330
  0.2429226800883227  0.2500000000000000  0.1153078392686670
  0.2570773199116773  0.2500000000000000  0.6153078392686671
  0.7570773199116774  0.7500000000000000  0.8846921607313329
  0.0689863715747859  0.7500000000000000  0.1377348765396575
  0.5689863715747858  0.2500000000000000  0.3622651234603425
  0.9310136284252142  0.2500000000000000  0.8622651234603425
  0.4310136284252141  0.7500000000000000  0.6377348765396575
 
  0.00000000E+00  0.00000000E+00  0.00000000E+00
  0.00000000E+00  0.00000000E+00  0.00000000E+00
  0.00000000E+00  0.00000000E+00  0.00000000E+00
  0.00000000E+00  0.00000000E+00  0.00000000E+00
  0.00000000E+00  0.00000000E+00  0.00000000E+00
  0.00000000E+00  0.00000000E+00  0.00000000E+00
  0.00000000E+00  0.00000000E+00  0.00000000E+00
  0.00000000E+00  0.00000000E+00  0.00000000E+00
