Ga4 Cl12
1.0
   0.0000000000000000   12.5015540000000005    0.0000000000000000
   7.4859900000000001    0.0000000000000000    0.0000000000000000
   0.0000000000000000   -4.4161210000000004   -5.9950479999999988
Ga Cl
4 12
direct
   0.3447490000000000    0.0000000000000000    0.9156950000000000 Ga3+
   0.1552510000000000    0.5000000000000000    0.0843050000000000 Ga3+
   0.8447490000000000    0.5000000000000000    0.9156950000000000 Ga3+
   0.6552510000000000    0.0000000000000000    0.0843050000000000 Ga3+
   0.0000000000000000    0.7212530000000000    0.0000000000000000 Cl-
   0.0000000000000000    0.2787470000000000    0.0000000000000000 Cl-
   0.6894359999999999    0.0000000000000000    0.8350880000000001 Cl-
   0.8105640000000001    0.5000000000000000    0.1649119999999999 Cl-
   0.3130919999999999    0.5000000000000000    0.4306350000000000 Cl-
   0.1869080000000001    0.0000000000000000    0.5693650000000000 Cl-
   0.5000000000000000    0.2212530000000000    0.0000000000000000 Cl-
   0.5000000000000000    0.7787470000000001    0.0000000000000000 Cl-
   0.1894359999999999    0.5000000000000000    0.8350880000000001 Cl-
   0.3105640000000001    0.0000000000000000    0.1649119999999999 Cl-
   0.8130919999999999    0.0000000000000000    0.4306350000000000 Cl-
   0.6869080000000001    0.5000000000000000    0.5693650000000000 Cl-

