Mo2 S4                                  
   1.00000000000000     
     3.1905393437010305   -0.0000000000000005   -0.0000000000000000
    -1.5952696718505157    2.7630874211884477   -0.0000000000000000
     0.0000000000000000    0.0000000000000000   14.3409865594166455
   Mo   S 
     2     4
Direct
  0.3333330000000032  0.6666669999999968  0.2500000000000000
  0.6666669999999968  0.3333330000000032  0.7500000000000000
  0.6666669999999968  0.3333330000000032  0.3591336558061933
  0.3333330000000032  0.6666669999999968  0.8591336558061933
  0.6666669999999968  0.3333330000000032  0.1408663441938068
  0.3333330000000032  0.6666669999999968  0.6408663441938067
 
  0.00000000E+00  0.00000000E+00  0.00000000E+00
  0.00000000E+00  0.00000000E+00  0.00000000E+00
  0.00000000E+00  0.00000000E+00  0.00000000E+00
  0.00000000E+00  0.00000000E+00  0.00000000E+00
  0.00000000E+00  0.00000000E+00  0.00000000E+00
  0.00000000E+00  0.00000000E+00  0.00000000E+00
