Cs1 Se1 Br3
1.0
5.575018 0.000000 0.000000
0.000000 5.559635 0.000000
0.000000 0.008602 5.560457
Cs Se Br
1 1 3
direct
0.500000 0.999145 0.995153 Cs
0.000000 0.503092 0.485835 Se
0.500000 0.504893 0.486293 Br
0.000000 0.499682 0.985603 Br
0.000000 0.003185 0.487116 Br
