Ga4 As4
1.0
0.000000 5.750182 5.750182
5.750182 0.000000 5.750182
2.875091 2.875091 0.000000
Ga As
4 4
direct
0.000000 0.000000 0.000000 Ga
0.000000 0.500000 1.000000 Ga
0.500000 0.000000 1.000000 Ga
0.500000 0.500000 1.000000 Ga
0.375000 0.375000 0.750000 As
0.375000 0.875000 0.750000 As
0.875000 0.375000 0.750000 As
0.875000 0.875000 0.750000 As
