C8
1.0
4.935448 0.000000 0.000000
-1.233862 2.137112 0.000000
0.000000 0.000000 8.685038
C
8
direct
0.000000 0.000000 0.250000 C
0.500000 0.000000 0.250000 C
0.000000 0.000000 0.750000 C
0.500000 0.000000 0.750000 C
0.333333 0.333333 0.250000 C
0.833333 0.333333 0.250000 C
0.166666 0.666667 0.750000 C
0.666666 0.666667 0.750000 C
