Se3
1.0
2.259733 -3.913972 0.000000
2.259733 3.913972 0.000000
0.000000 0.000000 5.049958
Se
3
direct
0.219209 0.000000 0.333333 Se
0.000000 0.219209 0.666667 Se
0.780791 0.780791 0.000000 Se

