V20 F44
1.0
14.599168 0.000000 0.000000
0.000000 8.118004 0.000000
0.000000 6.869270 8.405454
V F
20 44
direct
0.831791 0.731319 0.547426 V
0.328549 0.493813 0.574384 V
0.176048 0.751790 0.696855 V
0.504125 0.535456 0.735248 V
0.662341 0.988863 0.658174 V
0.004125 0.464544 0.764752 V
0.676048 0.248210 0.803145 V
0.828549 0.506187 0.925616 V
0.162341 0.011137 0.841826 V
0.331791 0.268681 0.952574 V
0.668209 0.731319 0.047426 V
0.837659 0.988863 0.158174 V
0.171451 0.493813 0.074384 V
0.323952 0.751790 0.196855 V
0.995875 0.535456 0.235248 V
0.337659 0.011137 0.341826 V
0.495875 0.464544 0.264752 V
0.823952 0.248210 0.303145 V
0.671451 0.506187 0.425616 V
0.168209 0.268681 0.452574 V
0.416853 0.730728 0.539774 F
0.079071 0.690064 0.591793 F
0.249857 0.012898 0.497737 F
0.595405 0.498185 0.602225 F
0.918535 0.481894 0.619334 F
0.572451 0.772635 0.684074 F
0.239582 0.252867 0.630896 F
0.739229 0.239184 0.628423 F
0.917501 0.696149 0.726761 F
0.257616 0.503725 0.740741 F
0.103418 0.006255 0.663709 F
0.757616 0.496275 0.759259 F
0.417501 0.303851 0.773239 F
0.072451 0.227365 0.815926 F
0.418535 0.518106 0.880666 F
0.095405 0.501815 0.897775 F
0.603418 0.993745 0.836291 F
0.579071 0.309936 0.908207 F
0.239229 0.760816 0.871577 F
0.739582 0.747133 0.869104 F
0.916853 0.269272 0.960226 F
0.250143 0.012898 0.997737 F
0.749857 0.987102 0.002263 F
0.083147 0.730728 0.039774 F
0.260418 0.252867 0.130896 F
0.760771 0.239184 0.128423 F
0.420929 0.690064 0.091793 F
0.396582 0.006255 0.163709 F
0.904595 0.498185 0.102225 F
0.581465 0.481894 0.119334 F
0.927549 0.772635 0.184074 F
0.582499 0.696149 0.226761 F
0.242384 0.503725 0.240741 F
0.896582 0.993745 0.336291 F
0.742384 0.496275 0.259259 F
0.082499 0.303851 0.273239 F
0.260771 0.760816 0.371577 F
0.760418 0.747133 0.369104 F
0.427549 0.227365 0.315926 F
0.081465 0.518106 0.380666 F
0.404595 0.501815 0.397775 F
0.750143 0.987102 0.502263 F
0.920929 0.309936 0.408207 F
0.583147 0.269272 0.460226 F
