Li2 Nb6 In2 Cl18
1.0
9.081729 -0.016100 -2.439228
-2.393288 7.888979 -4.640954
0.025551 0.029704 9.471208
Li Nb In Cl
2 6 2 18
direct
0.617971 0.048023 0.188707 Li
0.382029 0.951977 0.811293 Li
0.139468 0.571377 0.246663 Nb
0.860532 0.428623 0.753337 Nb
0.132251 0.345257 0.892413 Nb
0.857814 0.299535 0.978797 Nb
0.867749 0.654743 0.107587 Nb
0.142186 0.700465 0.021203 Nb
0.343021 0.268031 0.484317 In
0.656979 0.731969 0.515683 In
0.002741 0.652117 0.734319 Cl
0.679891 0.598171 0.834092 Cl
0.332586 0.962557 0.057087 Cl
0.987794 0.081750 0.849461 Cl
0.008175 0.762989 0.416082 Cl
0.670032 0.336701 0.439177 Cl
0.322236 0.555376 0.900323 Cl
0.320109 0.401829 0.165908 Cl
0.299891 0.154532 0.752115 Cl
0.997259 0.347883 0.265681 Cl
0.677764 0.444624 0.099677 Cl
0.669210 0.176547 0.681695 Cl
0.700109 0.845468 0.247885 Cl
0.012206 0.918250 0.150539 Cl
0.991825 0.237011 0.583918 Cl
0.329968 0.663299 0.560823 Cl
0.667414 0.037443 0.942913 Cl
0.330790 0.823453 0.318305 Cl
