Cd2 H4 O4
1.0
5.679487 3.036979 0.000000
-5.679487 3.036979 0.000000
0.000000 1.119751 3.074115
Cd H O
2 4 4
direct
0.790443 0.066445 0.031818 Cd
0.066445 0.790443 0.031818 Cd
0.665813 0.304216 0.516012 H
0.304216 0.665813 0.516012 H
0.384340 0.384340 0.402306 H
0.577755 0.577755 0.653538 H
0.348757 0.842017 0.419031 O
0.842017 0.348757 0.419031 O
0.396251 0.396251 0.692928 O
0.836963 0.836963 0.601507 O
