Sn6 F16
1.0
   0.0000000000000000    5.4944290000000002    0.0000000000000000
   5.4965799999999998    0.0000000000000000    0.0000000000000000
   0.0000000000000000   -5.3802699999999977  -12.4932620000000014
Sn F
6 16
direct
   0.0000000000000000    0.0000000000000000    0.0000000000000000 Sn2+
   0.0000000000000000    0.5000000000000000    0.5000000000000000 Sn2+
   0.3729239999999999    0.0549809999999999    0.3330109999999999 Sn3+
   0.6270760000000001    0.5549809999999999    0.1669890000000001 Sn3+
   0.6270760000000001    0.9450190000000001    0.6669890000000001 Sn3+
   0.3729239999999999    0.4450190000000001    0.8330109999999999 Sn3+
   0.4156830000000000    0.3929100000000000    0.2540709999999999 F-
   0.5843170000000000    0.8929100000000001    0.2459290000000001 F-
   0.5843170000000000    0.6070900000000000    0.7459290000000001 F-
   0.4156830000000000    0.1070900000000000    0.7540709999999999 F-
   0.3269609999999999    0.1997550000000000    0.0370019999999998 F-
   0.6730390000000001    0.6997550000000001    0.4629980000000002 F-
   0.0112340000000000    0.4692080000000000    0.6495749999999998 F-
   0.9887660000000000    0.9692080000000001    0.8504250000000002 F-
   0.9887660000000000    0.5307920000000000    0.3504250000000002 F-
   0.0112340000000000    0.0307920000000000    0.1495749999999998 F-
   0.7751990000000000    0.3043470000000000    0.9525380000000001 F-
   0.2248010000000000    0.8043469999999999    0.5474619999999999 F-
   0.2248010000000000    0.6956530000000000    0.0474619999999999 F-
   0.7751990000000000    0.1956530000000000    0.4525380000000001 F-
   0.3269609999999999    0.3002450000000000    0.5370019999999998 F-
   0.6730390000000001    0.8002450000000000    0.9629980000000002 F-

