Hg4 O4                                  
   1.00000000000000     
     3.7388520000000001    0.0000000000000000    0.0000000000000000
     0.0000000000000000    5.7965949999999999    0.0000000000000000
     0.0000000000000000    0.0000000000000000    6.7396909999999997
   Hg   O 
     4     4
Direct
  0.7429220000000001  0.7500000000000000  0.3847390000000033
  0.2429220000000001  0.2500000000000000  0.1152609999999967
  0.2570779999999999  0.2500000000000000  0.6152609999999967
  0.7570779999999999  0.7500000000000000  0.8847390000000033
  0.0690450000000027  0.7500000000000000  0.1377669999999966
  0.5690450000000027  0.2500000000000000  0.3622330000000034
  0.9309549999999973  0.2500000000000000  0.8622330000000034
  0.4309549999999973  0.7500000000000000  0.6377669999999966
 
  0.00000000E+00  0.00000000E+00  0.00000000E+00
  0.00000000E+00  0.00000000E+00  0.00000000E+00
  0.00000000E+00  0.00000000E+00  0.00000000E+00
  0.00000000E+00  0.00000000E+00  0.00000000E+00
  0.00000000E+00  0.00000000E+00  0.00000000E+00
  0.00000000E+00  0.00000000E+00  0.00000000E+00
  0.00000000E+00  0.00000000E+00  0.00000000E+00
  0.00000000E+00  0.00000000E+00  0.00000000E+00
