P2 F10
1.0
   2.8776440835507251   -4.9842257588098349    0.0000000000000000
   2.8776440835507251    4.9842257588098349    0.0000000000000000
   0.0000000000000000    0.0000000000000000    6.3782079999999999
P F
2 10
direct
   0.3333333333333333    0.6666666666666666    0.2500000000000000 P5+
   0.6666666666666667    0.3333333333333334    0.7500000000000000 P5+
   0.6463169999999998    0.8231584999999999    0.2500000000000000 F-
   0.8231584999999999    0.6463169999999998    0.7500000000000000 F-
   0.6666666666666666    0.3333333333333333    0.0026490000000000 F-
   0.3333333333333333    0.6666666666666666    0.5026490000000000 F-
   0.3333333333333334    0.6666666666666667    0.9973510000000000 F-
   0.6666666666666667    0.3333333333333334    0.4973510000000000 F-
   0.3536830000000002    0.1768415000000001    0.7500000000000000 F-
   0.1768415000000001    0.3536830000000002    0.2500000000000000 F-
   0.1768415000000001    0.8231584999999999    0.2500000000000000 F-
   0.8231584999999999    0.1768415000000001    0.7500000000000000 F-

