Cu2 H2
1.0
   1.4243038065681293   -2.4669665583897542    0.0000000000000000
   1.4243038065681293    2.4669665583897542    0.0000000000000000
   0.0000000000000000    0.0000000000000000    4.5712500000000000
Cu H
2 2
direct
   0.3333333333333333    0.6666666666666666    0.9977590000000001 Cu+
   0.6666666666666667    0.3333333333333333    0.4977590000000001 Cu+
   0.3333333333333333    0.6666666666666666    0.3772410000000002 H-
   0.6666666666666667    0.3333333333333333    0.8772410000000002 H-

