Li2 Cu6 F20
1.0
6.969874 0.000000 0.000000
0.000000 7.120384 0.000000
0.000000 0.000000 7.346233
Li Cu F
2 6 20
direct
0.000000 0.678141 0.750000 Li
0.000000 0.321859 0.250000 Li
0.500000 0.500000 0.000000 Cu
0.768044 0.000000 0.000000 Cu
0.768044 0.000000 0.500000 Cu
0.231956 0.000000 0.000000 Cu
0.231956 0.000000 0.500000 Cu
0.500000 0.500000 0.500000 Cu
0.500000 0.572547 0.250000 F
0.500000 0.427453 0.750000 F
0.500000 0.000000 0.000000 F
0.689882 0.671864 0.953884 F
0.689882 0.328136 0.046116 F
0.689882 0.671864 0.546116 F
0.689882 0.328136 0.453884 F
0.774124 0.057811 0.750000 F
0.774124 0.942189 0.250000 F
0.000000 0.833836 0.959258 F
0.000000 0.166164 0.040742 F
0.000000 0.833836 0.540742 F
0.000000 0.166164 0.459258 F
0.225876 0.942189 0.250000 F
0.225876 0.057811 0.750000 F
0.310118 0.671864 0.953884 F
0.310118 0.328136 0.046116 F
0.310118 0.671864 0.546116 F
0.310118 0.328136 0.453884 F
0.500000 0.000000 0.500000 F
