Al4 P4
1.0
0.000000 5.507112 5.507112
5.507112 0.000000 5.507112
2.753556 2.753556 0.000000
Al P
4 4
direct
0.000000 0.000000 0.000000 Al
0.000000 0.500000 1.000000 Al
0.500000 0.000000 1.000000 Al
0.500000 0.500000 1.000000 Al
0.125000 0.125000 0.250000 P
0.125000 0.625000 0.250000 P
0.625000 0.125000 0.250000 P
0.625000 0.625000 0.250000 P
