H12 N4                                  
   1.00000000000000     
     5.1415668483794681   -0.0000000000000000    0.0000000000000000
     0.0000000000000000    5.1415668483794681    0.0000000000000000
     0.0000000000000000   -0.0000000000000000    5.1415668483794681
   H    N 
    12     4
Direct
  0.1450634811939071  0.7296271181877215  0.5976744521986225
  0.6450634811939071  0.7703728818122785  0.4023255478013775
  0.8549365188060929  0.2296271181877216  0.9023255478013775
  0.7703728818122785  0.4023255478013775  0.6450634811939071
  0.3549365188060929  0.2703728818122784  0.0976744521986225
  0.0976744521986225  0.3549365188060929  0.2703728818122784
  0.2703728818122784  0.0976744521986225  0.3549365188060929
  0.2296271181877216  0.9023255478013775  0.8549365188060929
  0.5976744521986225  0.1450634811939071  0.7296271181877215
  0.7296271181877215  0.5976744521986225  0.1450634811939071
  0.4023255478013775  0.6450634811939071  0.7703728818122785
  0.9023255478013775  0.8549365188060929  0.2296271181877216
  0.8018207631852636  0.6981792368147364  0.3018207631852707
  0.6981792368147364  0.3018207631852707  0.8018207631852636
  0.3018207631852707  0.8018207631852636  0.6981792368147364
  0.1981792368147293  0.1981792368147293  0.1981792368147293
 
  0.00000000E+00  0.00000000E+00  0.00000000E+00
  0.00000000E+00  0.00000000E+00  0.00000000E+00
  0.00000000E+00  0.00000000E+00  0.00000000E+00
  0.00000000E+00  0.00000000E+00  0.00000000E+00
  0.00000000E+00  0.00000000E+00  0.00000000E+00
  0.00000000E+00  0.00000000E+00  0.00000000E+00
  0.00000000E+00  0.00000000E+00  0.00000000E+00
  0.00000000E+00  0.00000000E+00  0.00000000E+00
  0.00000000E+00  0.00000000E+00  0.00000000E+00
  0.00000000E+00  0.00000000E+00  0.00000000E+00
  0.00000000E+00  0.00000000E+00  0.00000000E+00
  0.00000000E+00  0.00000000E+00  0.00000000E+00
  0.00000000E+00  0.00000000E+00  0.00000000E+00
  0.00000000E+00  0.00000000E+00  0.00000000E+00
  0.00000000E+00  0.00000000E+00  0.00000000E+00
  0.00000000E+00  0.00000000E+00  0.00000000E+00
