Pb4 Cl8
1.0
   4.5792409999999997    0.0000000000000000    0.0000000000000003
   0.0000000000000013    7.7898730000000000    0.0000000000000005
   0.0000000000000000    0.0000000000000000    9.3557410000000001
Pb Cl
4 8
direct
   0.2500000000000000    0.7645580000000001    0.4159219999999997 Pb2+
   0.7500000000000000    0.2354419999999999    0.5840780000000003 Pb2+
   0.2500000000000000    0.2645580000000001    0.0840780000000003 Pb2+
   0.7500000000000000    0.7354419999999999    0.9159219999999997 Pb2+
   0.2500000000000000    0.9884970000000000    0.6544629999999999 Cl-
   0.7500000000000000    0.0115030000000000    0.3455370000000001 Cl-
   0.2500000000000000    0.4884970000000000    0.8455370000000001 Cl-
   0.7500000000000000    0.5115030000000000    0.1544629999999998 Cl-
   0.7500000000000000    0.1421440000000000    0.9172599999999997 Cl-
   0.2500000000000000    0.8578560000000000    0.0827400000000003 Cl-
   0.7500000000000000    0.6421440000000000    0.5827400000000003 Cl-
   0.2500000000000000    0.3578560000000000    0.4172599999999997 Cl-

