B4 P4
1.0
0.000000 4.546816 4.546816
4.546816 0.000000 4.546816
2.273408 2.273408 0.000000
B P
4 4
direct
0.000000 0.000000 0.000000 B
0.000000 0.500000 1.000000 B
0.500000 0.000000 1.000000 B
0.500000 0.500000 1.000000 B
0.125000 0.125000 0.250000 P
0.125000 0.625000 0.250000 P
0.625000 0.125000 0.250000 P
0.625000 0.625000 0.250000 P
