Na4 S2
1.0
0.000000 6.571096 6.571096
3.285548 0.000000 3.285548
3.285548 3.285548 0.000000
Na S
4 2
direct
0.125000 0.250000 0.250000 Na
0.625000 0.250000 0.250000 Na
0.375000 0.750000 0.750000 Na
0.875000 0.750000 0.750000 Na
0.000000 0.000000 0.000000 S
0.500000 1.000000 0.000000 S
