Al4 Cl12
1.0
   0.0000000000000000    6.0268800000000002    0.0000000000000000
  10.4326039999999995    0.0000000000000000    0.0000000000000000
   0.0000000000000000   -1.9579040000000008   -6.3586289999999996
Al Cl
4 12
direct
   0.5000000000000000    0.6666170000000000    0.0000000000000000 Al3+
   0.5000000000000000    0.3333830000000000    0.0000000000000000 Al3+
   0.0000000000000000    0.1666170000000000    0.0000000000000000 Al3+
   0.0000000000000000    0.8333830000000000    0.0000000000000000 Al3+
   0.7954729999999999    0.0000000000000000    0.7887330000000000 Cl-
   0.2045270000000001    0.0000000000000000    0.2112670000000000 Cl-
   0.7499115000000000    0.1815914999999999    0.2103680000000000 Cl-
   0.2500885000000000    0.1815914999999999    0.7896320000000000 Cl-
   0.2500885000000000    0.8184085000000001    0.7896320000000000 Cl-
   0.7499115000000000    0.8184085000000001    0.2103680000000000 Cl-
   0.2954729999999999    0.5000000000000000    0.7887330000000000 Cl-
   0.7045270000000001    0.5000000000000000    0.2112670000000000 Cl-
   0.2499115000000000    0.6815914999999999    0.2103680000000000 Cl-
   0.7500884999999999    0.6815914999999999    0.7896320000000000 Cl-
   0.7500884999999999    0.3184085000000001    0.7896320000000000 Cl-
   0.2499115000000000    0.3184085000000001    0.2103680000000000 Cl-

