Zn4 H32 C8 I8 N16 O8
1.0
6.994245 0.000000 0.000000
0.000000 12.688841 0.000000
0.000000 5.727331 12.876707
Zn H C I N O
4 32 8 8 16 8
direct
0.909604 0.876619 0.252310 Zn
0.409604 0.123381 0.247690 Zn
0.090396 0.123381 0.747690 Zn
0.590396 0.876619 0.752310 Zn
0.333063 0.260760 0.324927 H
0.833063 0.739240 0.175073 H
0.666937 0.739240 0.675073 H
0.166937 0.260760 0.824927 H
0.492196 0.181607 0.411471 H
0.992196 0.818393 0.088529 H
0.507804 0.818393 0.588529 H
0.007804 0.181607 0.911471 H
0.357042 0.067316 0.573098 H
0.857042 0.932684 0.926902 H
0.642958 0.932684 0.426902 H
0.142958 0.067316 0.073098 H
0.138512 0.995858 0.576226 H
0.638512 0.004142 0.923774 H
0.861488 0.004142 0.423774 H
0.361488 0.995858 0.076226 H
0.457000 0.425575 0.944764 H
0.957000 0.574425 0.555236 H
0.543000 0.574425 0.055236 H
0.043000 0.425575 0.444764 H
0.556248 0.353627 0.069835 H
0.056248 0.646373 0.430165 H
0.443752 0.646373 0.930165 H
0.943752 0.353627 0.569835 H
0.129581 0.442041 0.933280 H
0.629581 0.557959 0.566720 H
0.870419 0.557959 0.066720 H
0.370419 0.442041 0.433280 H
0.990069 0.351653 0.040142 H
0.490069 0.648347 0.459858 H
0.009931 0.648347 0.959858 H
0.509931 0.351653 0.540142 H
0.211144 0.114285 0.433289 C
0.711144 0.885715 0.066711 C
0.788856 0.885715 0.566711 C
0.288856 0.114285 0.933289 C
0.275059 0.326188 0.060002 C
0.775059 0.673812 0.439998 C
0.724941 0.673812 0.939998 C
0.224941 0.326188 0.560002 C
0.718790 0.391231 0.227889 I
0.218790 0.608769 0.272111 I
0.281210 0.608769 0.772111 I
0.781210 0.391231 0.727889 I
0.761916 0.092593 0.187456 I
0.261916 0.907407 0.312544 I
0.238084 0.907407 0.812544 I
0.738084 0.092593 0.687456 I
0.371667 0.177551 0.371748 N
0.871667 0.822449 0.128252 N
0.628333 0.822449 0.628252 N
0.128333 0.177551 0.871748 N
0.243890 0.052954 0.535055 N
0.743890 0.947046 0.964945 N
0.756110 0.947046 0.464945 N
0.256110 0.052954 0.035055 N
0.448489 0.360739 0.018046 N
0.948489 0.639261 0.481954 N
0.551511 0.639261 0.981954 N
0.051511 0.360739 0.518046 N
0.117802 0.370655 0.002789 N
0.617802 0.629345 0.497211 N
0.882198 0.629345 0.997211 N
0.382198 0.370655 0.502789 N
0.060797 0.113542 0.387928 O
0.560797 0.886458 0.112072 O
0.939203 0.886458 0.612072 O
0.439203 0.113542 0.887928 O
0.253631 0.248814 0.153091 O
0.753631 0.751186 0.346909 O
0.746369 0.751186 0.846909 O
0.246369 0.248814 0.653091 O
