Bi4 Cl12
1.0
   6.7881650000000002    0.0000000000000000    0.0000000000000004
   0.0000000000000013    8.3731919999999995    0.0000000000000005
   0.0000000000000000    0.0000000000000000    8.8150919999999999
Bi Cl
4 12
direct
   0.4882600000000000    0.5448140000000000    0.7500000000000000 Bi3+
   0.5117400000000000    0.4551860000000000    0.2500000000000000 Bi3+
   0.0117400000000000    0.0448140000000001    0.7500000000000000 Bi3+
   0.9882600000000000    0.9551860000000000    0.2500000000000000 Bi3+
   0.6332540000000000    0.3369919999999999    0.9395209999999999 Cl-
   0.3667460000000000    0.6630080000000000    0.4395210000000001 Cl-
   0.8667460000000000    0.8369920000000000    0.9395209999999999 Cl-
   0.1332540000000000    0.1630080000000001    0.4395210000000001 Cl-
   0.6496370000000000    0.0705610000000000    0.2500000000000000 Cl-
   0.3503630000000000    0.9294390000000000    0.7500000000000000 Cl-
   0.8503630000000000    0.5705610000000000    0.2500000000000000 Cl-
   0.1496370000000000    0.4294390000000000    0.7500000000000000 Cl-
   0.1332540000000000    0.1630080000000001    0.0604790000000001 Cl-
   0.8667460000000000    0.8369920000000000    0.5604790000000001 Cl-
   0.3667460000000000    0.6630080000000000    0.0604790000000001 Cl-
   0.6332540000000000    0.3369919999999999    0.5604790000000001 Cl-

