Tl1 Cu2 H1 Se2 O10
1.0
3.117102 4.483755 0.000000
-3.117102 4.483755 0.000000
0.000000 3.908841 8.002025
Tl Cu H Se O
1 2 1 2 10
direct
0.000000 0.000000 0.000000 Tl
0.500000 0.000000 0.500000 Cu
0.000000 0.500000 0.500000 Cu
0.000000 0.000000 0.500000 H
0.555851 0.555851 0.234016 Se
0.444149 0.444149 0.765984 Se
0.657543 0.206902 0.285183 O
0.342457 0.793098 0.714817 O
0.793098 0.342457 0.714817 O
0.206902 0.657543 0.285183 O
0.848744 0.848744 0.539511 O
0.151256 0.151256 0.460489 O
0.334547 0.334547 0.970391 O
0.665453 0.665453 0.029609 O
0.669021 0.669021 0.339445 O
0.330979 0.330979 0.660555 O
