Cr8
1.0
-2.346488 4.064238 3.319042
-2.347060 -4.064238 3.318638
2.346632 0.000247 1.659320
Cr
8
direct
0.250000 0.250000 0.500000 Cr
0.250000 0.750000 0.500000 Cr
0.750000 0.250000 0.500000 Cr
0.750000 0.750000 0.500000 Cr
0.000000 0.000000 0.000000 Cr
0.000000 0.500000 0.000000 Cr
0.500000 0.000000 0.000000 Cr
0.500000 0.500000 1.000000 Cr
