Mn2 Al2 P4 H30 O30
1.0
7.004751 0.000000 0.000000
-1.386282 9.482011 0.000000
-3.307135 -2.138435 9.350948
Mn Al P H O
2 2 4 30 30
direct
0.322531 0.700973 0.049076 Mn
0.677469 0.299027 0.950924 Mn
0.500000 0.500000 0.500000 Al
0.000000 0.500000 0.500000 Al
0.737766 0.708551 0.354411 P
0.262234 0.291449 0.645589 P
0.900534 0.703621 0.748687 P
0.099466 0.296379 0.251313 P
0.903208 0.880478 0.542660 H
0.096792 0.119522 0.457340 H
0.686586 0.316180 0.443717 H
0.313414 0.683820 0.556283 H
0.987144 0.944741 0.800960 H
0.012856 0.055259 0.199040 H
0.211548 0.578234 0.245324 H
0.788452 0.421766 0.754676 H
0.268162 0.739540 0.306062 H
0.731838 0.260460 0.693938 H
0.269014 0.404702 0.916703 H
0.730986 0.595298 0.083297 H
0.151200 0.401256 0.027156 H
0.848800 0.598744 0.972844 H
0.505974 0.637525 0.844085 H
0.494026 0.362475 0.155915 H
0.287538 0.678298 0.777176 H
0.712462 0.321702 0.222824 H
0.457249 0.000292 0.215115 H
0.542751 0.999708 0.784885 H
0.331430 0.997778 0.051469 H
0.668570 0.002222 0.948531 H
0.762302 0.859299 0.130458 H
0.237698 0.140701 0.869542 H
0.891244 0.855591 0.028036 H
0.108756 0.144409 0.971965 H
0.483504 0.131911 0.446349 H
0.516496 0.868089 0.553651 H
0.681486 0.062326 0.459147 H
0.318514 0.937674 0.540853 H
0.642887 0.719117 0.197736 O
0.357113 0.280883 0.802264 O
0.900900 0.617006 0.371598 O
0.099100 0.382994 0.628402 O
0.577922 0.662946 0.422223 O
0.422078 0.337054 0.577777 O
0.683100 0.606245 0.691783 O
0.316900 0.393755 0.308217 O
0.033932 0.652776 0.663032 O
0.966068 0.347224 0.336968 O
0.004651 0.715120 0.910661 O
0.995349 0.284880 0.089339 O
0.850042 0.874284 0.438520 O
0.149958 0.125716 0.561480 O
0.722454 0.421396 0.479308 O
0.277546 0.578604 0.520692 O
0.877108 0.863430 0.725450 O
0.122892 0.136570 0.274550 O
0.193594 0.670013 0.215727 O
0.806406 0.329987 0.784273 O
0.260316 0.460854 0.004811 O
0.739684 0.539146 0.995189 O
0.414322 0.699445 0.864397 O
0.585678 0.300555 0.135603 O
0.389185 0.937184 0.118435 O
0.610815 0.062816 0.881565 O
0.834959 0.921822 0.083607 O
0.165041 0.078178 0.916393 O
0.579531 0.107161 0.398842 O
0.420469 0.892839 0.601158 O
