Al4 As4
1.0
0.000000 5.733756 5.733756
5.733756 0.000000 5.733756
2.866878 2.866878 0.000000
Al As
4 4
direct
0.000000 0.000000 0.000000 Al
0.000000 0.500000 1.000000 Al
0.500000 0.000000 1.000000 Al
0.500000 0.500000 1.000000 Al
0.125000 0.125000 0.250000 As
0.125000 0.625000 0.250000 As
0.625000 0.125000 0.250000 As
0.625000 0.625000 0.250000 As
