H16 S8                                  
   1.00000000000000     
     4.3781456281255586    0.0000000000000001    0.0000000000000000
    -0.0000000000000000    6.8156155782155556    0.0000000000000000
     0.0000000000000000    0.0000000000000000   13.4389020739215770
   H    S 
    16     8
Direct
  0.2000850950578509  0.7500000000000000  0.7124456558662615
  0.7999149049421491  0.2500000000000000  0.2875543441337381
  0.2000850950578509  0.2500000000000000  0.7875543441337385
  0.7999149049421491  0.7500000000000000  0.2124456558662616
  0.1976581222059993  0.7500000000000000  0.5652315172172837
  0.8023418777940007  0.2500000000000000  0.4347684827827160
  0.1976581222059993  0.2500000000000000  0.9347684827827163
  0.8023418777940007  0.7500000000000000  0.0652315172172839
  0.7189158585085527  0.6049973893968856  0.8717789228009228
  0.2810841414914476  0.1049973893968857  0.1282210771990774
  0.7189158585085527  0.3950026106031141  0.6282210771990772
  0.2810841414914476  0.8950026106031144  0.3717789228009227
  0.2810841414914476  0.3950026106031141  0.1282210771990774
  0.7189158585085527  0.8950026106031144  0.8717789228009228
  0.2810841414914476  0.6049973893968856  0.3717789228009227
  0.7189158585085527  0.1049973893968857  0.6282210771990772
  0.9861485028779909  0.7500000000000000  0.6392888553615351
  0.0138514971220090  0.2500000000000000  0.3607111446384648
  0.9861485028779909  0.2500000000000000  0.8607111446384649
  0.0138514971220090  0.7500000000000000  0.1392888553615351
  0.5133166358593328  0.7500000000000000  0.8897696278078029
  0.4866833641406671  0.2500000000000000  0.1102303721921969
  0.5133166358593328  0.2500000000000000  0.6102303721921971
  0.4866833641406671  0.7500000000000000  0.3897696278078032
 
  0.00000000E+00  0.00000000E+00  0.00000000E+00
  0.00000000E+00  0.00000000E+00  0.00000000E+00
  0.00000000E+00  0.00000000E+00  0.00000000E+00
  0.00000000E+00  0.00000000E+00  0.00000000E+00
  0.00000000E+00  0.00000000E+00  0.00000000E+00
  0.00000000E+00  0.00000000E+00  0.00000000E+00
  0.00000000E+00  0.00000000E+00  0.00000000E+00
  0.00000000E+00  0.00000000E+00  0.00000000E+00
  0.00000000E+00  0.00000000E+00  0.00000000E+00
  0.00000000E+00  0.00000000E+00  0.00000000E+00
  0.00000000E+00  0.00000000E+00  0.00000000E+00
  0.00000000E+00  0.00000000E+00  0.00000000E+00
  0.00000000E+00  0.00000000E+00  0.00000000E+00
  0.00000000E+00  0.00000000E+00  0.00000000E+00
  0.00000000E+00  0.00000000E+00  0.00000000E+00
  0.00000000E+00  0.00000000E+00  0.00000000E+00
  0.00000000E+00  0.00000000E+00  0.00000000E+00
  0.00000000E+00  0.00000000E+00  0.00000000E+00
  0.00000000E+00  0.00000000E+00  0.00000000E+00
  0.00000000E+00  0.00000000E+00  0.00000000E+00
  0.00000000E+00  0.00000000E+00  0.00000000E+00
  0.00000000E+00  0.00000000E+00  0.00000000E+00
  0.00000000E+00  0.00000000E+00  0.00000000E+00
  0.00000000E+00  0.00000000E+00  0.00000000E+00
