Mo2 S4                                  
   1.00000000000000     
     3.1903160000000002    0.0000000000000000    0.0000000000000000
    -1.5951580000000001    2.7628940000000002    0.0000000000000000
     0.0000000000000000    0.0000000000000000   14.8790040000000001
   Mo   S 
     2     4
Direct
  0.3333330000000032  0.6666669999999968  0.2500000000000000
  0.6666669999999968  0.3333330000000032  0.7500000000000000
  0.6666669999999968  0.3333330000000032  0.3551739999999981
  0.3333330000000032  0.6666669999999968  0.8551739999999981
  0.6666669999999968  0.3333330000000032  0.1448260000000019
  0.3333330000000032  0.6666669999999968  0.6448260000000019
 
  0.00000000E+00  0.00000000E+00  0.00000000E+00
  0.00000000E+00  0.00000000E+00  0.00000000E+00
  0.00000000E+00  0.00000000E+00  0.00000000E+00
  0.00000000E+00  0.00000000E+00  0.00000000E+00
  0.00000000E+00  0.00000000E+00  0.00000000E+00
  0.00000000E+00  0.00000000E+00  0.00000000E+00
