Na4 I4
1.0
0.000000 6.531996 6.531996
6.531996 0.000000 6.531996
3.265998 3.265998 0.000000
Na I
4 4
direct
0.000000 0.000000 0.000000 Na
0.000000 0.500000 1.000000 Na
0.500000 0.000000 1.000000 Na
0.500000 0.500000 1.000000 Na
0.250000 0.250000 0.500000 I
0.250000 0.750000 0.500000 I
0.750000 0.250000 0.500000 I
0.750000 0.750000 0.500000 I
