Mg4 O4
1.0
0.000000 4.256484 4.256484
4.256484 0.000000 4.256484
2.128242 2.128242 0.000000
Mg O
4 4
direct
0.000000 0.000000 0.000000 Mg
1.000000 0.500000 0.000000 Mg
0.500000 1.000000 0.000000 Mg
0.500000 0.500000 0.000000 Mg
0.250000 0.250000 0.500000 O
0.250000 0.750000 0.500000 O
0.750000 0.250000 0.500000 O
0.750000 0.750000 0.500000 O
