Zn1 Cu3 H6 Cl2 O6
1.0
3.177921 -5.504320 0.000000
3.177921 5.504320 0.000000
0.000000 0.000000 5.744834
Zn Cu H Cl O
1 3 6 2 6
direct
0.000000 0.000000 0.500000 Zn
0.000000 0.500000 0.500000 Cu
0.500000 0.000000 0.500000 Cu
0.500000 0.500000 0.500000 Cu
0.199278 0.800722 0.821462 H
0.800722 0.199278 0.178538 H
0.398555 0.199278 0.178538 H
0.601445 0.800722 0.821462 H
0.199278 0.398555 0.821462 H
0.800722 0.601445 0.178538 H
0.333333 0.666667 0.122346 Cl
0.666667 0.333333 0.877654 Cl
0.645336 0.822668 0.654656 O
0.822668 0.177332 0.345344 O
0.354664 0.177332 0.345344 O
0.177332 0.822668 0.654656 O
0.822668 0.645336 0.345344 O
0.177332 0.354664 0.654656 O
