Fe8
1.0
9.275824 0.000740 -3.278848
-2.318502 4.016430 -1.639048
0.000025 0.000273 2.459206
Fe
8
direct
0.000000 0.000000 0.000000 Fe
0.000000 0.500000 1.000000 Fe
0.500000 1.000000 1.000000 Fe
0.500000 0.500000 1.000000 Fe
0.250000 0.500000 1.000000 Fe
0.250000 0.000000 1.000000 Fe
0.750000 0.500000 1.000000 Fe
0.750000 0.000000 1.000000 Fe
