Cs2 Sc1 In1 Br6
1.0
0.000000 5.842519 5.842519
5.842519 0.000000 5.842519
5.842519 5.842519 0.000000
Cs Sc In Br
2 1 1 6
direct
0.750000 0.750000 0.750000 Cs
0.250000 0.250000 0.250000 Cs
0.000000 0.000000 0.000000 Sc
0.500000 0.500000 0.500000 In
0.771242 0.228758 0.228758 Br
0.228758 0.228758 0.771242 Br
0.228758 0.771242 0.771242 Br
0.228758 0.771242 0.228758 Br
0.771242 0.228758 0.771242 Br
0.771242 0.771242 0.228758 Br
