Ti6
1.0
4.576855 0.000000 0.000000
-2.288427 3.963672 0.000000
0.000000 0.000000 5.657366
Ti
6
direct
0.000000 0.000000 0.000000 Ti
0.000000 0.000000 0.500000 Ti
0.666667 0.333333 0.250000 Ti
0.666667 0.333333 0.750000 Ti
0.333333 0.666667 0.250000 Ti
0.333333 0.666667 0.750000 Ti
