Ca4 O4
1.0
0.000000 4.839266 4.839266
4.839266 0.000000 4.839266
2.419633 2.419633 0.000000
Ca O
4 4
direct
0.000000 0.000000 0.000000 Ca
1.000000 0.500000 0.000000 Ca
0.500000 1.000000 0.000000 Ca
0.500000 0.500000 0.000000 Ca
0.250000 0.250000 0.500000 O
0.250000 0.750000 0.500000 O
0.750000 0.250000 0.500000 O
0.750000 0.750000 0.500000 O
