Zr8
1.0
3.239232 -5.610514 0.000000
3.239232 5.610514 0.000000
0.000000 0.000000 5.172220
Zr
8
direct
0.166666 0.333334 0.250000 Zr
0.166666 0.833333 0.250000 Zr
0.666667 0.333334 0.250000 Zr
0.666667 0.833334 0.250000 Zr
0.333334 0.166666 0.750000 Zr
0.333334 0.666667 0.750000 Zr
0.833333 0.166666 0.750000 Zr
0.833334 0.666667 0.750000 Zr
