Li2 V4 P10 O32
1.0
9.516431 0.000000 0.000000
0.000000 7.590292 0.000000
0.000000 3.806830 9.638722
Li V P O
2 4 10 32
direct
0.802289 0.999050 0.752262 Li
0.197711 0.999050 0.252262 Li
0.142501 0.377580 0.467728 V
0.369572 0.926875 0.862651 V
0.630428 0.926875 0.362651 V
0.857499 0.377580 0.967728 V
0.861635 0.614643 0.371942 P
0.292755 0.571726 0.128791 P
0.874106 0.276896 0.302937 P
0.417939 0.124124 0.524913 P
0.582061 0.124124 0.024913 P
0.138365 0.614643 0.871942 P
0.540572 0.515868 0.992688 P
0.707245 0.571726 0.628791 P
0.459428 0.515868 0.492688 P
0.125894 0.276896 0.802937 P
0.295779 0.785411 0.069315 O
0.819827 0.491904 0.283164 O
0.065934 0.293525 0.661072 O
0.229187 0.476763 0.268306 O
0.255021 0.152282 0.848504 O
0.495528 0.332343 0.458014 O
0.448687 0.484515 0.132478 O
0.693918 0.518164 0.025216 O
0.212489 0.496800 0.020426 O
0.534184 0.017082 0.934907 O
0.987261 0.225935 0.414457 O
0.258537 0.152586 0.504971 O
0.464318 0.044064 0.675063 O
0.934066 0.293525 0.161072 O
0.744979 0.152282 0.348504 O
0.465816 0.017082 0.434907 O
0.200634 0.808071 0.804144 O
0.741463 0.152586 0.004971 O
0.480217 0.685737 0.878302 O
0.535682 0.044064 0.175063 O
0.704221 0.785411 0.569315 O
0.980565 0.615298 0.895180 O
0.799366 0.808071 0.304144 O
0.180173 0.491904 0.783164 O
0.519783 0.685737 0.378302 O
0.770813 0.476763 0.768306 O
0.504472 0.332343 0.958014 O
0.019435 0.615298 0.395180 O
0.551313 0.484515 0.632478 O
0.306082 0.518164 0.525216 O
0.787511 0.496800 0.520426 O
0.012739 0.225935 0.914457 O
