Mg4 In4 Br12
1.0
4.010462 0.000000 0.000000
0.000000 9.642312 0.000000
0.000000 0.000000 15.658998
Mg In Br
4 4 12
direct
0.250000 0.161497 0.553269 Mg
0.750000 0.838503 0.446731 Mg
0.250000 0.661497 0.946731 Mg
0.750000 0.338503 0.053269 Mg
0.250000 0.471573 0.324419 In
0.750000 0.528427 0.675581 In
0.250000 0.971573 0.175581 In
0.750000 0.028427 0.824419 In
0.750000 0.479938 0.900873 Br
0.250000 0.520062 0.099127 Br
0.750000 0.979938 0.599127 Br
0.250000 0.020062 0.400873 Br
0.750000 0.825117 0.002581 Br
0.250000 0.174883 0.997419 Br
0.750000 0.325117 0.497419 Br
0.250000 0.674883 0.502581 Br
0.750000 0.226173 0.206569 Br
0.250000 0.773827 0.793431 Br
0.750000 0.726173 0.293431 Br
0.250000 0.273827 0.706569 Br
