Si8
1.0
0.000000 5.468728 5.468728
5.468728 0.000000 5.468728
2.734364 2.734364 0.000000
Si
8
direct
0.125000 0.125000 0.250000 Si
0.125000 0.625000 0.250000 Si
0.625000 0.125000 0.250000 Si
0.625000 0.625000 0.250000 Si
0.000000 0.000000 0.000000 Si
0.000000 0.500000 1.000000 Si
0.500000 0.000000 1.000000 Si
0.500000 0.500000 1.000000 Si
