Mg4 S4
1.0
0.000000 5.229004 5.229004
5.229004 0.000000 5.229004
2.614502 2.614502 0.000000
Mg S
4 4
direct
0.000000 0.000000 0.000000 Mg
0.000000 0.500000 1.000000 Mg
0.500000 0.000000 1.000000 Mg
0.500000 0.500000 1.000000 Mg
0.250000 0.250000 0.500000 S
0.250000 0.750000 0.500000 S
0.750000 0.250000 0.500000 S
0.750000 0.750000 0.500000 S
