Mo2 S4                                  
   1.00000000000000     
     3.3550604474760579    0.0000000000000000    0.0000000000000000
    -1.6775302237380290    2.9055667677703099   -0.0000000000000000
     0.0000000000000000   -0.0000000000000000   15.4451580712294394
   Mo   S    Te
     2     2     2
Direct
  0.3333330000000032  0.6666669999999968  0.2500000000000000
  0.6666669999999968  0.3333330000000032  0.7500000000000000
  0.6666669999999968  0.3333330000000032  0.3475816066671109
  0.6666669999999968  0.3333330000000032  0.1524183933328891
  0.3333330000000032  0.6666669999999968  0.8722865278215937
  0.3333330000000032  0.6666669999999968  0.6277134721784063
 
  0.00000000E+00  0.00000000E+00  0.00000000E+00
  0.00000000E+00  0.00000000E+00  0.00000000E+00
  0.00000000E+00  0.00000000E+00  0.00000000E+00
  0.00000000E+00  0.00000000E+00  0.00000000E+00
  0.00000000E+00  0.00000000E+00  0.00000000E+00
  0.00000000E+00  0.00000000E+00  0.00000000E+00
