Be12 Tl8 Zn8 F48
1.0
10.224723 0.000000 0.000000
0.000000 10.224723 0.000000
0.000000 0.000000 10.224723
Be Tl Zn F
12 8 8 48
direct
0.019611 0.215282 0.375856 Be
0.480389 0.784718 0.875856 Be
0.980389 0.715282 0.124144 Be
0.375856 0.019611 0.215282 Be
0.519611 0.284718 0.624144 Be
0.875856 0.480389 0.784718 Be
0.124144 0.980389 0.715282 Be
0.624144 0.519611 0.284718 Be
0.215282 0.375856 0.019611 Be
0.715282 0.124144 0.980389 Be
0.284718 0.624144 0.519611 Be
0.784718 0.875856 0.480389 Be
0.048940 0.048940 0.048940 Tl
0.451060 0.951060 0.548940 Tl
0.951060 0.548940 0.451060 Tl
0.548940 0.451060 0.951060 Tl
0.816708 0.816708 0.816708 Tl
0.683292 0.183292 0.316708 Tl
0.183292 0.316708 0.683292 Tl
0.316708 0.683292 0.183292 Tl
0.334717 0.334717 0.334717 Zn
0.165283 0.665283 0.834717 Zn
0.665283 0.834717 0.165283 Zn
0.834717 0.165283 0.665283 Zn
0.598017 0.598017 0.598017 Zn
0.901983 0.401983 0.098017 Zn
0.401983 0.098017 0.901983 Zn
0.098017 0.901983 0.401983 Zn
0.012593 0.069067 0.329790 F
0.487407 0.930933 0.829790 F
0.987407 0.569067 0.170210 F
0.329790 0.012593 0.069067 F
0.512593 0.430933 0.670210 F
0.829790 0.487407 0.930933 F
0.170210 0.987407 0.569067 F
0.670210 0.512593 0.430933 F
0.069067 0.329790 0.012593 F
0.569067 0.170210 0.987407 F
0.430933 0.670210 0.512593 F
0.930933 0.829790 0.487407 F
0.266817 0.495912 0.437795 F
0.233183 0.504088 0.937795 F
0.733183 0.995912 0.062205 F
0.437795 0.266817 0.495912 F
0.766817 0.004088 0.562205 F
0.937795 0.233183 0.504088 F
0.062205 0.733183 0.995912 F
0.562205 0.766817 0.004088 F
0.495912 0.437795 0.266817 F
0.995912 0.062205 0.733183 F
0.004088 0.562205 0.766817 F
0.504088 0.937795 0.233183 F
0.045111 0.806043 0.230054 F
0.454889 0.193957 0.730054 F
0.954889 0.306043 0.269946 F
0.230054 0.045111 0.806043 F
0.545111 0.693957 0.769946 F
0.730054 0.454889 0.193957 F
0.269946 0.954889 0.306043 F
0.769946 0.545111 0.693957 F
0.806043 0.230054 0.045111 F
0.306043 0.269946 0.954889 F
0.693957 0.769946 0.545111 F
0.193957 0.730054 0.454889 F
0.163398 0.256178 0.401608 F
0.336602 0.743822 0.901608 F
0.836602 0.756178 0.098392 F
0.401608 0.163398 0.256178 F
0.663398 0.243822 0.598392 F
0.901608 0.336602 0.743822 F
0.098392 0.836602 0.756178 F
0.598392 0.663398 0.243822 F
0.256178 0.401608 0.163398 F
0.756178 0.098392 0.836602 F
0.243822 0.598392 0.663398 F
0.743822 0.901608 0.336602 F
