Te24 As16
1.0
16.353336 0.000000 0.000000
0.000000 7.066542 0.000000
0.000000 2.285249 10.552285
Te As
24 16
direct
0.000000 0.000000 0.000000 Te
0.500000 0.000000 0.000000 Te
0.250000 0.010239 0.993817 Te
0.750000 0.989761 0.006183 Te
0.125641 0.507105 0.994213 Te
0.625641 0.492895 0.005787 Te
0.874359 0.492895 0.005787 Te
0.374359 0.507105 0.994213 Te
0.001353 0.774025 0.671517 Te
0.501353 0.225975 0.328483 Te
0.998647 0.225975 0.328483 Te
0.498647 0.774025 0.671517 Te
0.250000 0.786036 0.669390 Te
0.750000 0.213964 0.330610 Te
0.750000 0.763332 0.666177 Te
0.250000 0.236668 0.333823 Te
0.124922 0.281757 0.670370 Te
0.624922 0.718243 0.329630 Te
0.875078 0.718243 0.329630 Te
0.375078 0.281757 0.670370 Te
0.623219 0.262075 0.664212 Te
0.123219 0.737925 0.335788 Te
0.376781 0.737925 0.335788 Te
0.876781 0.262075 0.664212 Te
0.250000 0.619938 0.202748 As
0.750000 0.380062 0.797252 As
0.750000 0.602874 0.177828 As
0.250000 0.397126 0.822172 As
0.991364 0.602999 0.170327 As
0.491364 0.397001 0.829673 As
0.008636 0.397001 0.829673 As
0.508636 0.602999 0.170327 As
0.129089 0.896874 0.827543 As
0.629089 0.103126 0.172457 As
0.870911 0.103126 0.172457 As
0.370911 0.896874 0.827543 As
0.621293 0.889255 0.816658 As
0.121293 0.110745 0.183342 As
0.378707 0.110745 0.183342 As
0.878707 0.889255 0.816658 As
