BNC2                                    
   1.00000000000000     
     2.4898125941977534   -0.0000000000000000    0.0000000000000000
    -1.2449062970988767    2.1562412920708081    0.0000000000000000
    -0.0000000000000000   -0.0000000000000000    7.8970926575718661
   C    B    N 
     2     1     1
Direct
 -0.0000000000000000  0.0000000000000000  0.2500000000000000
  0.6666669999999968  0.3333330000000032  0.2500000000000000
 -0.0000000000000000  0.0000000000000000  0.7500000000000000
  0.3333330000000032  0.6666669999999968  0.7500000000000000
 
  0.00000000E+00  0.00000000E+00  0.00000000E+00
  0.00000000E+00  0.00000000E+00  0.00000000E+00
  0.00000000E+00  0.00000000E+00  0.00000000E+00
  0.00000000E+00  0.00000000E+00  0.00000000E+00
