Fe6 B14 I2 O26
1.0
0.000000 6.170779 6.170779
6.170779 0.000000 6.170779
6.170779 6.170779 0.000000
Fe B I O
6 14 2 26
direct
0.500000 0.000000 0.000000 Fe
0.000000 0.000000 0.500000 Fe
0.500000 0.000000 0.500000 Fe
0.000000 0.500000 0.500000 Fe
0.000000 0.500000 0.000000 Fe
0.500000 0.500000 0.000000 Fe
0.250000 0.250000 0.750000 B
0.750000 0.250000 0.750000 B
0.750000 0.250000 0.250000 B
0.250000 0.750000 0.250000 B
0.250000 0.750000 0.750000 B
0.750000 0.750000 0.250000 B
0.579651 0.261048 0.579651 B
0.261048 0.579651 0.579651 B
0.579651 0.579651 0.261048 B
0.579651 0.579651 0.579651 B
0.079651 0.079651 0.761048 B
0.761048 0.079651 0.079651 B
0.079651 0.761048 0.079651 B
0.079651 0.079651 0.079651 B
0.750000 0.750000 0.750000 I
0.250000 0.250000 0.250000 I
0.500000 0.500000 0.500000 O
0.000000 0.000000 0.000000 O
0.753430 0.203606 0.436370 O
0.436370 0.203606 0.606594 O
0.606594 0.203606 0.753430 O
0.203606 0.753430 0.606594 O
0.203606 0.436370 0.753430 O
0.203606 0.606594 0.436370 O
0.606594 0.436370 0.203606 O
0.753430 0.606594 0.203606 O
0.436370 0.753430 0.203606 O
0.436370 0.606594 0.753430 O
0.606594 0.753430 0.436370 O
0.753430 0.436370 0.606594 O
0.253430 0.936370 0.703606 O
0.936370 0.106594 0.703606 O
0.106594 0.253430 0.703606 O
0.703606 0.106594 0.253430 O
0.703606 0.253430 0.936370 O
0.703606 0.936370 0.106594 O
0.106594 0.703606 0.936370 O
0.253430 0.703606 0.106594 O
0.936370 0.703606 0.253430 O
0.936370 0.253430 0.106594 O
0.106594 0.936370 0.253430 O
0.253430 0.106594 0.936370 O
