Si1 Bi12 O20
1.0
-5.123002 5.123002 5.123002
5.123002 -5.123002 5.123002
5.123002 5.123002 -5.123002
Si Bi O
1 12 20
direct
0.000000 0.000000 0.000000 Si
0.161472 0.858935 0.667385 Bi
0.808450 0.141065 0.302537 Bi
0.838528 0.505913 0.697463 Bi
0.494087 0.332615 0.191550 Bi
0.332615 0.191550 0.494087 Bi
0.667385 0.161472 0.858935 Bi
0.141065 0.302537 0.808450 Bi
0.697463 0.838528 0.505913 Bi
0.858935 0.667385 0.161472 Bi
0.302537 0.808450 0.141065 Bi
0.505913 0.697463 0.838528 Bi
0.191550 0.494087 0.332615 Bi
0.000000 0.000000 0.188230 O
0.000000 0.188230 0.000000 O
0.188230 0.000000 0.000000 O
0.811770 0.811770 0.811770 O
0.000000 0.000000 0.605583 O
0.000000 0.605583 0.000000 O
0.605583 0.000000 0.000000 O
0.394417 0.394417 0.394417 O
0.643467 0.878740 0.259663 O
0.380923 0.121260 0.764727 O
0.356533 0.616196 0.235273 O
0.383804 0.740337 0.619077 O
0.740337 0.619077 0.383804 O
0.619077 0.383804 0.740337 O
0.616196 0.235273 0.356533 O
0.764727 0.380923 0.121260 O
0.878740 0.259663 0.643467 O
0.235273 0.356533 0.616196 O
0.121260 0.764727 0.380923 O
0.259663 0.643467 0.878740 O
