Ag2 Sb6 I2 F48
1.0
9.145450 5.340018 0.000000
-9.145450 5.340018 0.000000
0.000000 0.517905 9.815344
Ag Sb I F
2 6 2 48
direct
0.000000 0.000000 0.500000 Ag
0.000000 0.000000 0.000000 Ag
0.341981 0.174582 0.751506 Sb
0.825418 0.658019 0.748494 Sb
0.828585 0.171415 0.750000 Sb
0.174582 0.341981 0.251506 Sb
0.171415 0.828585 0.250000 Sb
0.658019 0.825418 0.248494 Sb
0.333409 0.666591 0.750000 I
0.666591 0.333409 0.250000 I
0.327606 0.318037 0.853216 F
0.988777 0.673838 0.840303 F
0.680425 0.008588 0.852884 F
0.318037 0.327606 0.353216 F
0.008588 0.680425 0.352884 F
0.673838 0.988777 0.340303 F
0.672394 0.681963 0.146784 F
0.011223 0.326162 0.159697 F
0.319575 0.991412 0.147116 F
0.681963 0.672394 0.646784 F
0.991412 0.319575 0.647116 F
0.326162 0.011223 0.659697 F
0.485521 0.311670 0.625372 F
0.834875 0.527326 0.625850 F
0.694045 0.174499 0.628365 F
0.311670 0.485521 0.125372 F
0.174499 0.694045 0.128365 F
0.527326 0.834875 0.125850 F
0.514479 0.688330 0.374628 F
0.165125 0.472674 0.374150 F
0.305955 0.825501 0.371635 F
0.688330 0.514479 0.874628 F
0.825501 0.305955 0.871635 F
0.472674 0.165125 0.874150 F
0.190754 0.524576 0.861354 F
0.330444 0.803723 0.856126 F
0.470443 0.662639 0.856162 F
0.524576 0.190754 0.361354 F
0.662639 0.470443 0.356162 F
0.803723 0.330444 0.356126 F
0.809246 0.475424 0.138646 F
0.669556 0.196277 0.143874 F
0.529557 0.337361 0.143838 F
0.475424 0.809246 0.638646 F
0.337361 0.529557 0.643838 F
0.196277 0.669556 0.643874 F
0.189339 0.166905 0.640898 F
0.976394 0.821886 0.625477 F
0.843061 0.027216 0.635078 F
0.166905 0.189339 0.140898 F
0.027216 0.843061 0.135078 F
0.821886 0.976394 0.125477 F
0.810661 0.833095 0.359102 F
0.023606 0.178114 0.374523 F
0.156939 0.972784 0.364922 F
0.833095 0.810661 0.859102 F
0.972784 0.156939 0.864922 F
0.178114 0.023606 0.874523 F
