Na2 Ni2 P4 H2 O14
1.0
-6.531999 0.000000 0.000000
-0.171958 -6.541382 0.000000
2.524749 0.608308 6.112671
Na Ni P H O
2 2 4 2 14
direct
0.230745 0.117619 0.244506 Na
0.769255 0.882381 0.755494 Na
0.712377 0.358854 0.110121 Ni
0.287623 0.641146 0.889879 Ni
0.167773 0.619151 0.363842 P
0.832227 0.380849 0.636158 P
0.744006 0.856702 0.216076 P
0.255994 0.143298 0.783924 P
0.452600 0.801521 0.307940 H
0.547400 0.198479 0.692060 H
0.636135 0.669714 0.050138 O
0.363865 0.330286 0.949862 O
0.986469 0.792912 0.374367 O
0.013531 0.207088 0.625633 O
0.278472 0.708288 0.218832 O
0.721528 0.291712 0.781168 O
0.043643 0.420855 0.247611 O
0.956357 0.579145 0.752389 O
0.616621 0.906741 0.369503 O
0.383379 0.093259 0.630497 O
0.775566 0.039533 0.105654 O
0.224434 0.960467 0.894346 O
0.327979 0.614961 0.597220 O
0.672021 0.385039 0.402780 O
