Li1 Sc1 Tl2 Cl6
1.0
0.000000 5.075076 5.075076
5.075076 0.000000 5.075076
5.075076 5.075076 0.000000
Li Sc Tl Cl
1 1 2 6
direct
0.500000 0.500000 0.500000 Li
0.000000 0.000000 0.000000 Sc
0.250000 0.250000 0.250000 Tl
0.750000 0.750000 0.750000 Tl
0.754196 0.245804 0.245804 Cl
0.245804 0.754196 0.754196 Cl
0.245804 0.754196 0.245804 Cl
0.754196 0.245804 0.754196 Cl
0.245804 0.245804 0.754196 Cl
0.754196 0.754196 0.245804 Cl
