P8
1.0
3.306110 0.000000 0.000000
0.000000 11.221102 0.000000
0.000000 0.000000 4.552418
P
8
direct
0.000000 0.594494 0.913483 P
0.500000 0.905506 0.086517 P
0.000000 0.905506 0.413483 P
0.500000 0.594494 0.586517 P
0.500000 0.094494 0.913483 P
0.000000 0.405506 0.086517 P
0.500000 0.405506 0.413483 P
0.000000 0.094494 0.586517 P

