Fe6 Br18                                
   1.00000000000000     
     6.3159460000000003    0.0000000000000000    0.0000000000000000
    -3.1579730000000001    5.4697699999999996    0.0000000000000000
     0.0000000000000000    0.0000000000000000   19.2599400000000003
   Fe   Br
     6    18
Direct
  0.3333330000000032  0.6666669999999968  0.3332410000000010
  0.3333330000000032  0.6666669999999968  0.0000929999999997
  0.0000000000000000  0.0000000000000000  0.6665739999999971
  0.0000000000000000  0.0000000000000000  0.3334260000000029
  0.6666669999999968  0.3333330000000032  0.9999070000000003
  0.6666669999999968  0.3333330000000032  0.6667589999999990
  0.6667980000000000  0.7032629999999997  0.2618579999999966
  0.2967370000000003  0.9635350000000003  0.2618579999999966
  0.0364649999999997  0.3332020000000000  0.2618579999999966
  0.9998689999999968  0.6300700000000035  0.0714749999999995
  0.3699299999999965  0.3697980000000030  0.0714749999999995
  0.6302019999999970  0.0001310000000032  0.0714749999999995
  0.3334649999999968  0.0365960000000030  0.5951909999999998
  0.9634039999999970  0.2968680000000035  0.5951909999999998
  0.7031319999999965  0.6665350000000032  0.5951909999999998
  0.6665350000000032  0.9634039999999970  0.4048090000000002
  0.0365960000000030  0.7031319999999965  0.4048090000000002
  0.2968680000000035  0.3334649999999968  0.4048090000000002
  0.0001310000000032  0.3699299999999965  0.9285250000000005
  0.6300700000000035  0.6302019999999970  0.9285250000000005
  0.3697980000000030  0.9998689999999968  0.9285250000000005
  0.3332020000000000  0.2967370000000003  0.7381420000000034
  0.7032629999999997  0.0364649999999997  0.7381420000000034
  0.9635350000000003  0.6667980000000000  0.7381420000000034
 
  0.00000000E+00  0.00000000E+00  0.00000000E+00
  0.00000000E+00  0.00000000E+00  0.00000000E+00
  0.00000000E+00  0.00000000E+00  0.00000000E+00
  0.00000000E+00  0.00000000E+00  0.00000000E+00
  0.00000000E+00  0.00000000E+00  0.00000000E+00
  0.00000000E+00  0.00000000E+00  0.00000000E+00
  0.00000000E+00  0.00000000E+00  0.00000000E+00
  0.00000000E+00  0.00000000E+00  0.00000000E+00
  0.00000000E+00  0.00000000E+00  0.00000000E+00
  0.00000000E+00  0.00000000E+00  0.00000000E+00
  0.00000000E+00  0.00000000E+00  0.00000000E+00
  0.00000000E+00  0.00000000E+00  0.00000000E+00
  0.00000000E+00  0.00000000E+00  0.00000000E+00
  0.00000000E+00  0.00000000E+00  0.00000000E+00
  0.00000000E+00  0.00000000E+00  0.00000000E+00
  0.00000000E+00  0.00000000E+00  0.00000000E+00
  0.00000000E+00  0.00000000E+00  0.00000000E+00
  0.00000000E+00  0.00000000E+00  0.00000000E+00
  0.00000000E+00  0.00000000E+00  0.00000000E+00
  0.00000000E+00  0.00000000E+00  0.00000000E+00
  0.00000000E+00  0.00000000E+00  0.00000000E+00
  0.00000000E+00  0.00000000E+00  0.00000000E+00
  0.00000000E+00  0.00000000E+00  0.00000000E+00
  0.00000000E+00  0.00000000E+00  0.00000000E+00
