Li4 Mn3 Sn1 P4 O16
1.0
4.841241 -0.011342 0.000030
0.000039 -0.000036 6.293641
0.025865 -10.850103 0.000062
Li Mn O P Sn
4 3 16 4 1
direct
0.998833 0.004926 0.009854 Li
0.998834 0.495073 0.009853 Li
0.504319 0.494271 0.488371 Li
0.504321 0.005725 0.488369 Li
0.473025 0.750000 0.785921 Mn
0.536937 0.249999 0.214832 Mn
0.028931 0.750000 0.276131 Mn
0.226657 0.249998 0.527352 O
0.198197 0.749999 0.604032 O
0.273901 0.750000 0.098299 O
0.277813 0.250000 0.053994 O
0.713997 0.749999 0.959792 O
0.738769 0.250002 0.935572 O
0.778049 0.249997 0.396151 O
0.790348 0.749999 0.447948 O
0.223782 0.050932 0.329372 O
0.223748 0.449055 0.329353 O
0.309076 0.049708 0.854515 O
0.309064 0.450318 0.854515 O
0.722274 0.553349 0.161650 O
0.722274 0.946649 0.161649 O
0.735587 0.555885 0.648459 O
0.735587 0.944112 0.648458 O
0.096349 0.249993 0.395784 P
0.422582 0.250011 0.925276 P
0.591967 0.749999 0.093027 P
0.884572 0.750001 0.585137 P
0.980213 0.249999 0.716334 Sn
