K1 Rb2 As1 I6
1.0
0.000000 6.235367 6.235367
6.235367 0.000000 6.235367
6.235367 6.235367 0.000000
K Rb As I
1 2 1 6
direct
0.500000 0.500000 0.500000 K
0.750000 0.750000 0.750000 Rb
0.250000 0.250000 0.250000 Rb
0.000000 0.000000 0.000000 As
0.769491 0.230509 0.230509 I
0.230509 0.230509 0.769491 I
0.230509 0.769491 0.769491 I
0.230509 0.769491 0.230509 I
0.769491 0.230509 0.769491 I
0.769491 0.769491 0.230509 I
