Li1 Cr1 P2 S7
1.0
4.919080 4.288094 0.000000
-4.919080 4.288094 0.000000
0.000000 1.148325 6.020151
Li Cr P S
1 1 2 7
direct
0.892227 0.107773 0.500000 Li
0.497981 0.502019 0.000000 Cr
0.945829 0.632184 0.081530 P
0.367816 0.054171 0.918470 P
0.848591 0.513747 0.812238 S
0.503180 0.839291 0.761261 S
0.676648 0.630222 0.287792 S
0.035247 0.964753 0.000000 S
0.369778 0.323352 0.712208 S
0.160709 0.496820 0.238739 S
0.486253 0.151409 0.187762 S
